
# dump 1 all custom 100 dump.PofT_${T} id type c_Ep c_Ek
thermo 100
thermo_style custom step temp press density
run 20000
Neighbor list info ...
  update every 1 steps, delay 10 steps, check yes
  max neighbors/atom: 2000, page size: 100000
  master list distance cutoff = 3.3
  ghost atom cutoff = 3.3
  binsize = 1.65, bins = 97 97 97
  1 neighbor lists, perpetual/occasional/extra = 1 0 0
  (1) pair lj/cut, perpetual
      attributes: half, newton on
      pair build: half/bin/atomonly/newton
      stencil: half/bin/3d/newton
      bin: standard
Per MPI rank memory allocation (min/avg/max) = 4.201 | 4.201 | 4.201 Mbytes
Step Temp Press Density 
       0            5   0.00499875        0.001 
     100            5   0.00499875        0.001 
     200    5.0002975  0.004998493        0.001 
     300    5.0019799   0.00500526        0.001 
     400    5.0033707  0.004995119        0.001 
     500     5.003551 0.0050042238        0.001 
     600     5.003204 0.0050032021        0.001 
     700    5.0020024 0.0050124581        0.001 
     800     5.002732 0.0050026824        0.001 
     900    5.0026187 0.0050036486        0.001 
    1000    5.0021664 0.0050101279        0.001 
    1100    5.0036576 0.0050017649        0.001 
    1200    5.0041241 0.0049980799        0.001 
    1300    5.0021041 0.0050096439        0.001 
    1400    5.0029349 0.0049960634        0.001 
    1500    5.0022952 0.0050064117        0.001 
    1600    5.0040638 0.0050095574        0.001 
    1700    5.0023421 0.0050075492        0.001 
    1800    5.0027297  0.005013479        0.001 
    1900    5.0029809 0.0049990655        0.001 
    2000     5.001573 0.0050209952        0.001 
    2100    5.0034752 0.0049980478        0.001 
    2200    5.0011362 0.0050130798        0.001 
    2300    5.0021526 0.0050117944        0.001 
    2400    5.0034537 0.0050014151        0.001 
    2500    5.0037043 0.0050089004        0.001 
    2600    5.0037318 0.0050037038        0.001 
    2700    5.0037128 0.0050002955        0.001 
    2800    5.0041563 0.0050008644        0.001 
    2900    5.0025604 0.0050042383        0.001 
    3000     5.003315 0.0049988776        0.001 
    3100     5.003297 0.0049995238        0.001 
    3200    5.0031411 0.0050004535        0.001 
    3300    5.0026264 0.0050054688        0.001 
    3400    5.0000514 0.0050225981        0.001 
    3500    5.0031296 0.0050053216        0.001 
    3600    5.0018346 0.0050124161        0.001 
    3700    5.0040916 0.0049969059        0.001 
    3800    4.9998144 0.0050281018        0.001 
    3900     5.003508 0.0050002828        0.001 
    4000    5.0013983 0.0050151219        0.001 
    4100    5.0031024 0.0050025665        0.001 
    4200    5.0033842 0.0049940619        0.001 
    4300    5.0032231 0.0050033427        0.001 
    4400    5.0037366 0.0049956789        0.001 
    4500    5.0028639 0.0049973846        0.001 
    4600    5.0030221 0.0049984459        0.001 
    4700    5.0032716 0.0049977412        0.001 
    4800    5.0033844 0.0050036298        0.001 
    4900     5.001922 0.0050068182        0.001 
    5000     5.003229 0.0050034324        0.001 
    5100    5.0017298 0.0050093704        0.001 
    5200    5.0027826 0.0050048451        0.001 
    5300    5.0007641 0.0050218542        0.001 
    5400     5.003408 0.0049963822        0.001 
    5500    5.0023811 0.0050058279        0.001 
    5600    5.0025939 0.0050095076        0.001 
    5700    5.0037949 0.0050027885        0.001 
    5800     5.003465 0.0050008474        0.001 
    5900    5.0040284 0.0050074769        0.001 
    6000    5.0032865 0.0050006198        0.001 
    6100    5.0037463 0.0049975785        0.001 
    6200    5.0031572 0.0050003451        0.001 
    6300    5.0030959 0.0050030947        0.001 
    6400    5.0022091 0.0050142793        0.001 
    6500    5.0028115  0.005015423        0.001 
    6600     5.002397 0.0050110071        0.001 
    6700     5.002058 0.0050112629        0.001 
    6800    5.0034309 0.0050004531        0.001 
    6900    5.0034294 0.0049988227        0.001 
    7000      5.00388 0.0049952493        0.001 
    7100    5.0012721 0.0050193731        0.001 
    7200    5.0029394 0.0049979286        0.001 
    7300    5.0028618 0.0050027465        0.001 
    7400    5.0031438 0.0050037162        0.001 
    7500    5.0022589 0.0050192109        0.001 
    7600    5.0026814 0.0050058222        0.001 
    7700    5.0033308 0.0049992958        0.001 
    7800    5.0034551 0.0049973257        0.001 
    7900    5.0034032 0.0050036964        0.001 
    8000    5.0028623 0.0050043535        0.001 
    8100    5.0034153 0.0050001849        0.001 
    8200    5.0032584 0.0050017773        0.001 
    8300    5.0010206 0.0050198309        0.001 
    8400    5.0039101 0.0049944331        0.001 
    8500    5.0029938 0.0050063775        0.001 
    8600    5.0033727 0.0050096921        0.001 
    8700    5.0006605 0.0050194949        0.001 
    8800    5.0033859 0.0049996544        0.001 
    8900    5.0029556 0.0050005542        0.001 
    9000    5.0033002 0.0050062881        0.001 
    9100    5.0030677 0.0050088137        0.001 
    9200    5.0041307 0.0050042201        0.001 
    9300    5.0031299 0.0050007683        0.001 
    9400    5.0034882 0.0049990551        0.001 
    9500    5.0019009 0.0050168307        0.001 
    9600    5.0030868 0.0050016452        0.001 
    9700    5.0029795 0.0049971202        0.001 
    9800    5.0031622 0.0049981638        0.001 
    9900    5.0000768 0.0050242367        0.001 
   10000    5.0024168 0.0050016574        0.001 
   10100    5.0031588 0.0049991817        0.001 
   10200    5.0038496  0.004995389        0.001 
   10300    5.0033353 0.0050016238        0.001 
   10400    5.0031135 0.0050041121        0.001 
   10500    5.0029256 0.0049988023        0.001 
   10600       5.0037 0.0050014543        0.001 
   10700    5.0027429 0.0049998246        0.001 
   10800    5.0040473 0.0050018736        0.001 
   10900    5.0033785 0.0049980063        0.001 
   11000     5.004288 0.0050007304        0.001 
   11100    5.0039196 0.0049953117        0.001 
   11200    5.0032528 0.0050067377        0.001 
   11300    5.0016939 0.0050107104        0.001 
   11400    5.0025784 0.0050037373        0.001 
   11500    5.0007343 0.0050225711        0.001 
   11600    5.0033475 0.0050010364        0.001 
   11700    5.0004998 0.0050201327        0.001 
   11800    5.0031336 0.0049944968        0.001 
   11900    5.0025683  0.005007149        0.001 
   12000    5.0026279 0.0050036983        0.001 
   12100    5.0023403 0.0050043194        0.001 
   12200    5.0030553 0.0050041642        0.001 
   12300    5.0041324 0.0049999926        0.001 
   12400    5.0043076 0.0050010268        0.001 
   12500    5.0030927 0.0050057426        0.001 
   12600    5.0046646  0.005001067        0.001 
   12700    5.0032671 0.0050033155        0.001 
   12800    5.0016495 0.0050085374        0.001 
   12900    5.0020369 0.0050081565        0.001 
   13000    5.0040903 0.0050013348        0.001 
   13100    5.0027322 0.0049991649        0.001 
   13200    5.0010374  0.005020157        0.001 
   13300    5.0022481 0.0050022175        0.001 
   13400    5.0038768 0.0050001293        0.001 
   13500    5.0037913 0.0049982479        0.001 
   13600    5.0023438 0.0050156315        0.001 
   13700    5.0020025 0.0050143707        0.001 
   13800    5.0024779 0.0050128013        0.001 
   13900    5.0044783 0.0049986558        0.001 
   14000    5.0040193 0.0050012109        0.001 
   14100    5.0031155 0.0049982224        0.001 
   14200     5.002987 0.0050006928        0.001 
   14300    5.0027656 0.0050022345        0.001 
   14400    5.0030258   0.00499563        0.001 
   14500    5.0035365 0.0049947815        0.001 
   14600    5.0001133 0.0050246603        0.001 
   14700    5.0025611 0.0050109347        0.001 
   14800    5.0016323 0.0050085413        0.001 
   14900    5.0029608 0.0050030135        0.001 
   15000     5.003317 0.0050025112        0.001 
   15100    5.0017055 0.0050202408        0.001 
   15200    5.0030339 0.0050075017        0.001 
   15300    5.0037362 0.0050002231        0.001 
   15400    5.0035503 0.0049936645        0.001 
   15500    5.0032417 0.0050035174        0.001 
   15600    5.0025013 0.0050122818        0.001 
   15700    5.0019554 0.0050077605        0.001 
   15800     5.003975 0.0050020236        0.001 
   15900    5.0028237 0.0049992271        0.001 
   16000    5.0030044 0.0050074676        0.001 
   16100    5.0025801 0.0050123989        0.001 
   16200    5.0027864 0.0050100774        0.001 
   16300    5.0032599 0.0050135106        0.001 
   16400    5.0026736  0.005001868        0.001 
   16500    5.0025127 0.0050091578        0.001 
   16600    5.0012015 0.0050185773        0.001 
   16700    5.0017716 0.0050164774        0.001 
   16800    5.0015885 0.0050089373        0.001 
   16900    5.0028562 0.0050019187        0.001 
   17000    5.0021357 0.0050051676        0.001 
   17100     5.001799 0.0050122061        0.001 
   17200     5.000985 0.0050125577        0.001 
   17300    5.0036983 0.0050020109        0.001 
   17400    5.0015124 0.0050238861        0.001 
   17500    5.0028198 0.0049972929        0.001 
   17600    5.0019031 0.0050080953        0.001 
   17700    5.0021084 0.0050190904        0.001 
   17800     5.003375 0.0049966074        0.001 
   17900    5.0042665 0.0049964647        0.001 
   18000    5.0016508 0.0050137249        0.001 
   18100    5.0026517 0.0050011659        0.001 
   18200    5.0031398 0.0050009746        0.001 
   18300    5.0039567 0.0050011955        0.001 
   18400    5.0038923 0.0050008651        0.001 
   18500    5.0027515 0.0050047886        0.001 
   18600    5.0035965 0.0050046541        0.001 
   18700    5.0038587 0.0050001397        0.001 
   18800     5.000773 0.0050199819        0.001 
   18900    5.0008763  0.005025285        0.001 
   19000    5.0030432 0.0050165662        0.001 
   19100    5.0036401  0.004999247        0.001 
   19200    5.0042851 0.0049978141        0.001 
   19300     5.002872 0.0050028846        0.001 
   19400    5.0031772 0.0050013084        0.001 
   19500    5.0036045 0.0050056684        0.001 
   19600    5.0025745  0.005001285        0.001 
   19700    5.0034841 0.0049993633        0.001 
   19800    5.0034875 0.0050007961        0.001 
   19900    5.0035156  0.005001393        0.001 
   20000     5.003407 0.0050102052        0.001 
Loop time of 1.77518 on 4 procs for 20000 steps with 4000 atoms

Performance: 4867099.370 tau/day, 11266.434 timesteps/s
91.4% CPU use with 4 MPI tasks x 1 OpenMP threads

MPI task timing breakdown:
Section |  min time  |  avg time  |  max time  |%varavg| %total
---------------------------------------------------------------
Pair    | 0.083667   | 0.089146   | 0.096538   |   1.6 |  5.02
Neigh   | 0.88942    | 0.91374    | 0.95378    |   2.7 | 51.47
Comm    | 0.47735    | 0.52872    | 0.56871    |   5.3 | 29.78
Output  | 0.012325   | 0.018639   | 0.037498   |   8.0 |  1.05
Modify  | 0.16633    | 0.17058    | 0.17747    |   1.0 |  9.61
Other   |            | 0.05437    |            |       |  3.06

Nlocal:    1000 ave 1035 max 958 min
Histogram: 1 0 0 0 1 0 1 0 0 1
Nghost:    224.25 ave 249 max 205 min
Histogram: 2 0 0 0 0 0 0 1 0 1
Neighs:    79.75 ave 88 max 71 min
Histogram: 1 0 1 0 0 0 0 1 0 1

Total # of neighbors = 319
Ave neighs/atom = 0.07975
Neighbor list builds = 2000
Dangerous builds = 2000

clear
OMP_NUM_THREADS environment is not set. Defaulting to 1 thread. (src/comm.cpp:93)
  using 1 OpenMP thread(s) per MPI task
next rho
jump SELF rloop

variable rho index 0.001 0.005 0.01 0.05
variable T index 1e-8 1 2.5 5 10

units lj
dimension 3
boundary p p p
atom_style atomic

lattice fcc ${rho}
lattice fcc 0.005
Lattice spacing in x,y,z = 9.28318 9.28318 9.28318
region simbox block 0 10 0 10 0 10
create_box 1 simbox
Created orthogonal box = (0 0 0) to (92.8318 92.8318 92.8318)
  1 by 2 by 2 MPI processor grid
create_atoms 1 box
Created 4000 atoms
  create_atoms CPU = 0.00018096 secs

mass 1 1.0
velocity all create ${T} 87287 dist uniform
velocity all create 5 87287 dist uniform

pair_style lj/cut 3.0
pair_coeff 1 1 1.0 1.0 3.0

fix f all nve

# A log file for each T
log log.T${T} append
log log.T5 append

# dump 1 all custom 100 dump.PofT_${T} id type c_Ep c_Ek
thermo 100
thermo_style custom step temp press density
run 20000
Neighbor list info ...
  update every 1 steps, delay 10 steps, check yes
  max neighbors/atom: 2000, page size: 100000
  master list distance cutoff = 3.3
  ghost atom cutoff = 3.3
  binsize = 1.65, bins = 57 57 57
  1 neighbor lists, perpetual/occasional/extra = 1 0 0
  (1) pair lj/cut, perpetual
      attributes: half, newton on
      pair build: half/bin/atomonly/newton
      stencil: half/bin/3d/newton
      bin: standard
Per MPI rank memory allocation (min/avg/max) = 3.339 | 3.339 | 3.339 Mbytes
Step Temp Press Density 
       0            5   0.02499375        0.005 
     100    5.0002187  0.024990263        0.005 
     200    5.0079057  0.025258049        0.005 
     300    5.0080373  0.025410921        0.005 
     400     5.012674   0.02512918        0.005 
     500    5.0148918  0.025166995        0.005 
     600    5.0135781  0.025214625        0.005 
     700    5.0155023  0.025066615        0.005 
     800     5.017378  0.025065403        0.005 
     900    5.0142215  0.025050451        0.005 
    1000    5.0099896  0.025246348        0.005 
    1100    5.0113393  0.025215598        0.005 
    1200    5.0137098  0.025261934        0.005 
    1300    5.0152367  0.025179319        0.005 
    1400    5.0159563   0.02521033        0.005 
    1500    5.0148554  0.025192713        0.005 
    1600    5.0140447  0.025246814        0.005 
    1700    5.0162661  0.025108872        0.005 
    1800    5.0136713  0.025165964        0.005 
    1900    5.0157229  0.025149106        0.005 
    2000    5.0157227  0.025079243        0.005 
    2100    5.0128987  0.025198964        0.005 
    2200    5.0191425  0.025001197        0.005 
    2300     5.014504   0.02509643        0.005 
    2400    5.0187971   0.02500084        0.005 
    2500    5.0138377  0.025278729        0.005 
    2600    5.0098105  0.025278963        0.005 
    2700    5.0174405   0.02502112        0.005 
    2800    5.0169426  0.025126361        0.005 
    2900    5.0159551  0.025133213        0.005 
    3000    5.0158555   0.02521483        0.005 
    3100    5.0158843  0.025084948        0.005 
    3200    5.0152167  0.025036887        0.005 
    3300    5.0147264  0.025012236        0.005 
    3400    5.0152969  0.025165956        0.005 
    3500      5.01637  0.025113888        0.005 
    3600    5.0156294   0.02506171        0.005 
    3700    5.0143407  0.025087724        0.005 
    3800    5.0113895  0.025208363        0.005 
    3900    5.0155573  0.025039582        0.005 
    4000    5.0131161  0.025322837        0.005 
    4100    5.0166109  0.025046658        0.005 
    4200    5.0150909  0.025103574        0.005 
    4300    5.0121893     0.025241        0.005 
    4400    5.0160155  0.025121182        0.005 
    4500    5.0156169  0.025154016        0.005 
    4600    5.0166031  0.024994089        0.005 
    4700    5.0176077  0.025203645        0.005 
    4800    5.0132393   0.02510218        0.005 
    4900     5.011262  0.025222066        0.005 
    5000    5.0103331  0.025299105        0.005 
    5100    5.0179472  0.025035169        0.005 
    5200    5.0160444  0.025168648        0.005 
    5300    5.0120357  0.025321374        0.005 
    5400    5.0149662  0.025138252        0.005 
    5500    5.0110271  0.025252806        0.005 
    5600    5.0126455  0.025115301        0.005 
    5700    5.0149926  0.025063914        0.005 
    5800    5.0101938  0.025326819        0.005 
    5900    5.0157314  0.025078294        0.005 
    6000    5.0177766  0.025071965        0.005 
    6100    5.0171154  0.025078527        0.005 
    6200      5.00994  0.025330246        0.005 
    6300    5.0154133  0.025139091        0.005 
    6400    5.0117238  0.025272002        0.005 
    6500    5.0147215  0.025128655        0.005 
    6600    5.0156408   0.02500856        0.005 
    6700    5.0174465  0.025079206        0.005 
    6800    5.0111865  0.025263565        0.005 
    6900    5.0139927  0.025141954        0.005 
    7000    5.0160497  0.025118738        0.005 
    7100    5.0178806  0.025082576        0.005 
    7200    5.0149115  0.025183599        0.005 
    7300    5.0175372  0.025136458        0.005 
    7400    5.0136862  0.025214219        0.005 
    7500    5.0147598  0.025148792        0.005 
    7600    5.0106116  0.025255693        0.005 
    7700    5.0169747  0.025047922        0.005 
    7800    5.0153019  0.025135121        0.005 
    7900    5.0160838  0.025019858        0.005 
    8000    5.0173093  0.025017398        0.005 
    8100    5.0148122  0.025163535        0.005 
    8200      5.01438  0.025102366        0.005 
    8300    5.0130109  0.025247552        0.005 
    8400    5.0155249  0.025107734        0.005 
    8500     5.015665  0.025114886        0.005 
    8600    5.0132931  0.025122905        0.005 
    8700    5.0152555  0.024978292        0.005 
    8800    5.0171955   0.02507243        0.005 
    8900    5.0169844  0.025043962        0.005 
    9000    5.0164621  0.025091968        0.005 
    9100    5.0147311  0.025174266        0.005 
    9200    5.0148196  0.025143363        0.005 
    9300    5.0150443  0.025141117        0.005 
    9400    5.0164584  0.025069381        0.005 
    9500    5.0145208  0.025099693        0.005 
    9600    5.0129586   0.02530185        0.005 
    9700    5.0128141  0.025168142        0.005 
    9800     5.015007  0.025220067        0.005 
    9900    5.0166012  0.025072429        0.005 
   10000    5.0119168  0.025245803        0.005 
   10100    5.0169308  0.025080797        0.005 
   10200    5.0148854  0.025214839        0.005 
   10300    5.0146775  0.025153271        0.005 
   10400    5.0158081  0.025079169        0.005 
   10500    5.0171453  0.025068411        0.005 
   10600    5.0150743  0.025193196        0.005 
   10700    5.0146241  0.025190218        0.005 
   10800    5.0181054  0.025111375        0.005 
   10900    5.0164465  0.025105256        0.005 
   11000    5.0179696  0.024974279        0.005 
   11100    5.0163133  0.025172442        0.005 
   11200    5.0158703  0.025040994        0.005 
   11300     5.014673  0.025155187        0.005 
   11400    5.0184727  0.025120459        0.005 
   11500    5.0146631  0.025221628        0.005 
   11600    5.0159516   0.02517825        0.005 
   11700    5.0146424  0.025119202        0.005 
   11800    5.0165916  0.025090918        0.005 
   11900    5.0149995  0.025105937        0.005 
   12000    5.0149287   0.02514988        0.005 
   12100    5.0145805  0.025325747        0.005 
   12200    5.0151134  0.025173093        0.005 
   12300    5.0177644  0.025137374        0.005 
   12400    5.0157358  0.025132055        0.005 
   12500    5.0137456  0.025119852        0.005 
   12600    5.0147742  0.025108653        0.005 
   12700    5.0162921   0.02509083        0.005 
   12800    5.0125518  0.025273232        0.005 
   12900    5.0132912  0.025209073        0.005 
   13000    5.0132108  0.025162061        0.005 
   13100    5.0157489  0.025190345        0.005 
   13200    5.0163008  0.025049061        0.005 
   13300    5.0097571  0.025290051        0.005 
   13400    5.0169257  0.025019696        0.005 
   13500    5.0149572  0.025010754        0.005 
   13600    5.0123786  0.025184133        0.005 
   13700    5.0158423  0.025071363        0.005 
   13800    5.0153038  0.025220022        0.005 
   13900    5.0136597  0.025120812        0.005 
   14000     5.017251  0.024964822        0.005 
   14100    5.0156347  0.025152504        0.005 
   14200       5.0176  0.025051705        0.005 
   14300    5.0155617  0.025113482        0.005 
   14400      5.01506  0.025165642        0.005 
   14500    5.0173485  0.025067475        0.005 
   14600      5.01682   0.02505411        0.005 
   14700    5.0150625   0.02503675        0.005 
   14800    5.0187211  0.025118603        0.005 
   14900    5.0164562  0.025104069        0.005 
   15000    5.0131038  0.025174439        0.005 
   15100    5.0169339  0.025105312        0.005 
   15200    5.0155064  0.025186128        0.005 
   15300    5.0117395  0.025211918        0.005 
   15400    5.0147883  0.025203983        0.005 
   15500    5.0145055  0.025124074        0.005 
   15600    5.0158911  0.025076022        0.005 
   15700    5.0143963  0.025157977        0.005 
   15800    5.0134992  0.025223692        0.005 
   15900    5.0154839   0.02510436        0.005 
   16000    5.0150679  0.025095542        0.005 
   16100    5.0186303   0.02501318        0.005 
   16200    5.0113369  0.025181431        0.005 
   16300    5.0118439  0.025270959        0.005 
   16400    5.0156999  0.025191824        0.005 
   16500    5.0163291  0.025143425        0.005 
   16600    5.0122008  0.025242863        0.005 
   16700    5.0149206  0.025164582        0.005 
   16800     5.016766   0.02505059        0.005 
   16900    5.0150026  0.025201464        0.005 
   17000    5.0141048  0.025202659        0.005 
   17100    5.0142603  0.025168573        0.005 
   17200    5.0136157  0.025124624        0.005 
   17300    5.0173212  0.024988137        0.005 
   17400    5.0144389  0.025254773        0.005 
   17500    5.0147084  0.025237935        0.005 
   17600    5.0121505   0.02527777        0.005 
   17700    5.0178295  0.025107941        0.005 
   17800    5.0167003  0.025097421        0.005 
   17900    5.0113255  0.025263644        0.005 
   18000    5.0149292  0.025139519        0.005 
   18100    5.0140152  0.025207099        0.005 
   18200    5.0185935   0.02502827        0.005 
   18300    5.0141773  0.025160881        0.005 
   18400    5.0162407  0.025094436        0.005 
   18500    5.0138513  0.025174899        0.005 
   18600    5.0170837  0.025058286        0.005 
   18700     5.016862  0.025087151        0.005 
   18800    5.0169385  0.025028128        0.005 
   18900     5.008465  0.025331635        0.005 
   19000    5.0169852  0.025081895        0.005 
   19100    5.0153005  0.025189581        0.005 
   19200    5.0107396  0.025205873        0.005 
   19300    5.0127717  0.025224223        0.005 
   19400    5.0126532  0.025230655        0.005 
   19500    5.0143988  0.025120671        0.005 
   19600    5.0134718  0.025238992        0.005 
   19700    5.0124027  0.025177942        0.005 
   19800    5.0142245  0.025244335        0.005 
   19900    5.0138562  0.025131719        0.005 
   20000    5.0126876  0.025253413        0.005 
Loop time of 1.23845 on 4 procs for 20000 steps with 4000 atoms

Performance: 6976470.288 tau/day, 16149.237 timesteps/s
94.3% CPU use with 4 MPI tasks x 1 OpenMP threads

MPI task timing breakdown:
Section |  min time  |  avg time  |  max time  |%varavg| %total
---------------------------------------------------------------
Pair    | 0.15939    | 0.16594    | 0.17526    |   1.6 | 13.40
Neigh   | 0.4225     | 0.43603    | 0.45486    |   2.1 | 35.21
Comm    | 0.38702    | 0.41728    | 0.4478     |   4.7 | 33.69
Output  | 0.011929   | 0.017609   | 0.033808   |   7.1 |  1.42
Modify  | 0.15167    | 0.15602    | 0.16016    |   1.0 | 12.60
Other   |            | 0.04556    |            |       |  3.68

Nlocal:    1000 ave 1047 max 956 min
Histogram: 1 0 1 0 0 0 1 0 0 1
Nghost:    419.25 ave 441 max 403 min
Histogram: 1 0 0 2 0 0 0 0 0 1
Neighs:    370.25 ave 396 max 338 min
Histogram: 1 0 0 1 0 0 0 0 0 2

Total # of neighbors = 1481
Ave neighs/atom = 0.37025
Neighbor list builds = 2000
Dangerous builds = 2000

clear
OMP_NUM_THREADS environment is not set. Defaulting to 1 thread. (src/comm.cpp:93)
  using 1 OpenMP thread(s) per MPI task
next rho
jump SELF rloop

variable rho index 0.001 0.005 0.01 0.05
variable T index 1e-8 1 2.5 5 10

units lj
dimension 3
boundary p p p
atom_style atomic

lattice fcc ${rho}
lattice fcc 0.01
Lattice spacing in x,y,z = 7.36806 7.36806 7.36806
region simbox block 0 10 0 10 0 10
create_box 1 simbox
Created orthogonal box = (0 0 0) to (73.6806 73.6806 73.6806)
  1 by 2 by 2 MPI processor grid
create_atoms 1 box
Created 4000 atoms
  create_atoms CPU = 0.000235081 secs

mass 1 1.0
velocity all create ${T} 87287 dist uniform
velocity all create 5 87287 dist uniform

pair_style lj/cut 3.0
pair_coeff 1 1 1.0 1.0 3.0

fix f all nve

# A log file for each T
log log.T${T} append
log log.T5 append

# dump 1 all custom 100 dump.PofT_${T} id type c_Ep c_Ek
thermo 100
thermo_style custom step temp press density
run 20000
Neighbor list info ...
  update every 1 steps, delay 10 steps, check yes
  max neighbors/atom: 2000, page size: 100000
  master list distance cutoff = 3.3
  ghost atom cutoff = 3.3
  binsize = 1.65, bins = 45 45 45
  1 neighbor lists, perpetual/occasional/extra = 1 0 0
  (1) pair lj/cut, perpetual
      attributes: half, newton on
      pair build: half/bin/atomonly/newton
      stencil: half/bin/3d/newton
      bin: standard
Per MPI rank memory allocation (min/avg/max) = 3.215 | 3.215 | 3.215 Mbytes
Step Temp Press Density 
       0            5    0.0499875         0.01 
     100     4.997937  0.050724409         0.01 
     200    5.0226453  0.050665072         0.01 
     300    5.0290548  0.050361016         0.01 
     400    5.0280967  0.050691648         0.01 
     500    5.0278694  0.050421044         0.01 
     600    5.0244027  0.050890003         0.01 
     700     5.028781  0.050837159         0.01 
     800    5.0321759  0.050410939         0.01 
     900    5.0282418  0.050441456         0.01 
    1000    5.0250328  0.050627016         0.01 
    1100    5.0311991  0.050332921         0.01 
    1200    5.0309648  0.050573079         0.01 
    1300    5.0315536  0.050500651         0.01 
    1400    5.0343634  0.050439969         0.01 
    1500    5.0322452  0.050322953         0.01 
    1600    5.0316907   0.05044403         0.01 
    1700    5.0285137  0.050515101         0.01 
    1800    5.0261751  0.051022421         0.01 
    1900    5.0312664  0.050374822         0.01 
    2000    5.0315705  0.050425829         0.01 
    2100    5.0305611  0.050325386         0.01 
    2200    5.0285176  0.050777875         0.01 
    2300    5.0278153  0.050696356         0.01 
    2400    5.0268927  0.050317253         0.01 
    2500    5.0341397  0.050410832         0.01 
    2600    5.0243721  0.050908233         0.01 
    2700    5.0318949  0.050312878         0.01 
    2800    5.0262168  0.050661256         0.01 
    2900    5.0278544  0.050442798         0.01 
    3000    5.0292403  0.050642335         0.01 
    3100    5.0247659  0.050837444         0.01 
    3200     5.025982  0.050699726         0.01 
    3300    5.0272595  0.050962077         0.01 
    3400    5.0260318  0.050869405         0.01 
    3500     5.029683  0.050736081         0.01 
    3600    5.0285786  0.050635725         0.01 
    3700    5.0283553  0.050701352         0.01 
    3800    5.0325526   0.05021159         0.01 
    3900    5.0339485   0.05060112         0.01 
    4000    5.0331575  0.050353996         0.01 
    4100     5.026291  0.050886469         0.01 
    4200    5.0287333  0.050543401         0.01 
    4300    5.0290245  0.050737155         0.01 
    4400    5.0274339  0.050812662         0.01 
    4500    5.0337172  0.050683613         0.01 
    4600     5.029536  0.050510967         0.01 
    4700    5.0296482  0.050631174         0.01 
    4800     5.027804  0.050603249         0.01 
    4900    5.0295741  0.050638456         0.01 
    5000    5.0303166  0.050546099         0.01 
    5100    5.0294475  0.050459762         0.01 
    5200    5.0335199  0.050410663         0.01 
    5300    5.0308371  0.050459701         0.01 
    5400    5.0370544  0.050263102         0.01 
    5500    5.0368212  0.050060492         0.01 
    5600    5.0278179   0.05056364         0.01 
    5700    5.0272744  0.050757768         0.01 
    5800      5.03297  0.050359587         0.01 
    5900    5.0330303  0.050289293         0.01 
    6000    5.0316812    0.0507192         0.01 
    6100    5.0298382  0.050791606         0.01 
    6200    5.0277989  0.050912267         0.01 
    6300    5.0281573   0.05050865         0.01 
    6400    5.0351072  0.050292191         0.01 
    6500    5.0314507  0.050469184         0.01 
    6600     5.027914  0.050826396         0.01 
    6700    5.0293166  0.050800818         0.01 
    6800    5.0288479  0.050642628         0.01 
    6900    5.0336981  0.050300555         0.01 
    7000    5.0252913  0.050840519         0.01 
    7100    5.0303565  0.050429412         0.01 
    7200    5.0340995  0.050340138         0.01 
    7300    5.0294478  0.050626206         0.01 
    7400    5.0327233  0.050510808         0.01 
    7500    5.0271918  0.051062033         0.01 
    7600    5.0318399  0.050542111         0.01 
    7700    5.0284772  0.050557615         0.01 
    7800    5.0190254  0.051211665         0.01 
    7900    5.0293637  0.050914324         0.01 
    8000    5.0306638  0.050598836         0.01 
    8100    5.0304481   0.05043726         0.01 
    8200    5.0311447  0.050590384         0.01 
    8300    5.0235447  0.050816373         0.01 
    8400    5.0282534  0.050801194         0.01 
    8500    5.0327603  0.050535131         0.01 
    8600    5.0227944  0.050921603         0.01 
    8700    5.0295764  0.050491369         0.01 
    8800    5.0288076  0.050572259         0.01 
    8900    5.0296565  0.050638687         0.01 
    9000    5.0248684  0.051042381         0.01 
    9100     5.033742  0.050415656         0.01 
    9200     5.026204  0.050999496         0.01 
    9300    5.0284309  0.050410645         0.01 
    9400    5.0308025   0.05062219         0.01 
    9500    5.0317726  0.050432825         0.01 
    9600    5.0291043  0.050422211         0.01 
    9700    5.0287313  0.050559659         0.01 
    9800      5.03229  0.050404723         0.01 
    9900    5.0293381  0.050410281         0.01 
   10000    5.0262803  0.050907948         0.01 
   10100    5.0331759  0.050324279         0.01 
   10200    5.0267775  0.051035672         0.01 
   10300    5.0351817  0.050371596         0.01 
   10400    5.0325998  0.050403919         0.01 
   10500    5.0364046  0.050228603         0.01 
   10600    5.0328172  0.050230418         0.01 
   10700    5.0357836  0.050125811         0.01 
   10800    5.0319501  0.050548694         0.01 
   10900    5.0322476  0.050660595         0.01 
   11000    5.0299439  0.050598743         0.01 
   11100    5.0270173  0.051032509         0.01 
   11200    5.0288444  0.051060673         0.01 
   11300    5.0260033  0.050796346         0.01 
   11400    5.0287038  0.050997996         0.01 
   11500     5.029178  0.050896482         0.01 
   11600     5.033293  0.050482287         0.01 
   11700    5.0269095  0.050771306         0.01 
   11800    5.0304784  0.050728192         0.01 
   11900    5.0262784  0.050709965         0.01 
   12000    5.0316934  0.050504578         0.01 
   12100     5.027926  0.051029003         0.01 
   12200    5.0254453  0.050640876         0.01 
   12300     5.026912  0.050831617         0.01 
   12400    5.0313972   0.05035383         0.01 
   12500    5.0284953  0.050601017         0.01 
   12600    5.0304424  0.050553154         0.01 
   12700    5.0318198  0.050678089         0.01 
   12800    5.0335892   0.05041045         0.01 
   12900    5.0262362  0.051046609         0.01 
   13000    5.0322446  0.050419534         0.01 
   13100     5.034608  0.050345329         0.01 
   13200    5.0289602  0.050950617         0.01 
   13300      5.02627  0.050669452         0.01 
   13400    5.0279416  0.050629771         0.01 
   13500    5.0323371  0.050416636         0.01 
   13600     5.034775  0.050521572         0.01 
   13700    5.0264034   0.05109965         0.01 
   13800    5.0325221  0.050623291         0.01 
   13900    5.0295422   0.05058295         0.01 
   14000    5.0338482  0.050280719         0.01 
   14100     5.023082  0.051274039         0.01 
   14200    5.0319209   0.05094056         0.01 
   14300    5.0298648  0.050605808         0.01 
   14400    5.0307562  0.050757072         0.01 
   14500    5.0272098  0.050930473         0.01 
   14600    5.0293018  0.050643901         0.01 
   14700    5.0326768  0.050489599         0.01 
   14800    5.0275542  0.050869817         0.01 
   14900     5.027305   0.05067711         0.01 
   15000    5.0238008  0.050850445         0.01 
   15100    5.0258081    0.0509447         0.01 
   15200    5.0314284  0.050556315         0.01 
   15300    5.0287817  0.050964314         0.01 
   15400    5.0306659  0.050498524         0.01 
   15500    5.0331698  0.050487497         0.01 
   15600    5.0343441  0.050288917         0.01 
   15700    5.0273426  0.051009152         0.01 
   15800     5.021123  0.051014114         0.01 
   15900    5.0278854  0.050550652         0.01 
   16000    5.0260059  0.050934938         0.01 
   16100    5.0303042  0.050424829         0.01 
   16200     5.032538   0.05034051         0.01 
   16300    5.0242237  0.050923512         0.01 
   16400    5.0263891  0.050811631         0.01 
   16500    5.0283823  0.050676696         0.01 
   16600    5.0286929   0.05063404         0.01 
   16700      5.03492  0.050418884         0.01 
   16800     5.028616  0.050557294         0.01 
   16900    5.0271437  0.050821446         0.01 
   17000    5.0247106  0.050829291         0.01 
   17100    5.0273413  0.050621461         0.01 
   17200     5.030291  0.050895271         0.01 
   17300    5.0307364  0.050854211         0.01 
   17400    5.0280993  0.051042216         0.01 
   17500    5.0306914  0.050756085         0.01 
   17600    5.0297486  0.050178941         0.01 
   17700    5.0229036  0.050824754         0.01 
   17800    5.0333881  0.050627823         0.01 
   17900    5.0296787  0.050757336         0.01 
   18000    5.0316603  0.050647694         0.01 
   18100    5.0308723  0.050462651         0.01 
   18200    5.0277519  0.050729612         0.01 
   18300    5.0309735  0.050397699         0.01 
   18400     5.026663  0.050816434         0.01 
   18500    5.0285967  0.050656735         0.01 
   18600    5.0309886  0.050550701         0.01 
   18700      5.02888  0.050718099         0.01 
   18800    5.0277432  0.050542153         0.01 
   18900    5.0276972  0.050741652         0.01 
   19000    5.0278196   0.05058513         0.01 
   19100    5.0307234   0.05066053         0.01 
   19200    5.0288573  0.050706463         0.01 
   19300    5.0319118  0.050568866         0.01 
   19400    5.0324055  0.050284112         0.01 
   19500    5.0345636  0.050672292         0.01 
   19600    5.0318241  0.050491933         0.01 
   19700    5.0326705   0.05026957         0.01 
   19800       5.0368  0.050361403         0.01 
   19900     5.031799  0.050666156         0.01 
   20000    5.0325504  0.050252436         0.01 
Loop time of 1.38583 on 4 procs for 20000 steps with 4000 atoms

Performance: 6234525.903 tau/day, 14431.773 timesteps/s
94.9% CPU use with 4 MPI tasks x 1 OpenMP threads

MPI task timing breakdown:
Section |  min time  |  avg time  |  max time  |%varavg| %total
---------------------------------------------------------------
Pair    | 0.26176    | 0.27149    | 0.29487    |   2.6 | 19.59
Neigh   | 0.44338    | 0.45215    | 0.46256    |   1.1 | 32.63
Comm    | 0.41913    | 0.453      | 0.47893    |   3.6 | 32.69
Output  | 0.0038524  | 0.0096357  | 0.025213   |   9.2 |  0.70
Modify  | 0.15104    | 0.15454    | 0.15946    |   0.8 | 11.15
Other   |            | 0.04502    |            |       |  3.25

Nlocal:    1000 ave 1019 max 967 min
Histogram: 1 0 0 0 0 1 0 0 0 2
Nghost:    521.5 ave 549 max 491 min
Histogram: 1 1 0 0 0 0 0 0 0 2
Neighs:    725.25 ave 750 max 688 min
Histogram: 1 0 0 0 0 1 0 0 1 1

Total # of neighbors = 2901
Ave neighs/atom = 0.72525
Neighbor list builds = 2000
Dangerous builds = 2000

clear
OMP_NUM_THREADS environment is not set. Defaulting to 1 thread. (src/comm.cpp:93)
  using 1 OpenMP thread(s) per MPI task
next rho
jump SELF rloop

variable rho index 0.001 0.005 0.01 0.05
variable T index 1e-8 1 2.5 5 10

units lj
dimension 3
boundary p p p
atom_style atomic

lattice fcc ${rho}
lattice fcc 0.05
Lattice spacing in x,y,z = 4.30887 4.30887 4.30887
region simbox block 0 10 0 10 0 10
create_box 1 simbox
Created orthogonal box = (0 0 0) to (43.0887 43.0887 43.0887)
  1 by 2 by 2 MPI processor grid
create_atoms 1 box
Created 4000 atoms
  create_atoms CPU = 0.000174046 secs

mass 1 1.0
velocity all create ${T} 87287 dist uniform
velocity all create 5 87287 dist uniform

pair_style lj/cut 3.0
pair_coeff 1 1 1.0 1.0 3.0

fix f all nve

# A log file for each T
log log.T${T} append
log log.T5 append

# dump 1 all custom 100 dump.PofT_${T} id type c_Ep c_Ek
thermo 100
thermo_style custom step temp press density
run 20000
Neighbor list info ...
  update every 1 steps, delay 10 steps, check yes
  max neighbors/atom: 2000, page size: 100000
  master list distance cutoff = 3.3
  ghost atom cutoff = 3.3
  binsize = 1.65, bins = 27 27 27
  1 neighbor lists, perpetual/occasional/extra = 1 0 0
  (1) pair lj/cut, perpetual
      attributes: half, newton on
      pair build: half/bin/atomonly/newton
      stencil: half/bin/3d/newton
      bin: standard
Per MPI rank memory allocation (min/avg/max) = 3.131 | 3.131 | 3.131 Mbytes
Step Temp Press Density 
       0            5    0.2499375         0.05 
     100    5.1150155   0.26599936         0.05 
     200    5.1404876   0.26760544         0.05 
     300    5.1429842   0.26770047         0.05 
     400    5.1435535   0.26801378         0.05 
     500    5.1420952   0.26518901         0.05 
     600    5.1461449   0.27006044         0.05 
     700     5.150733   0.26650923         0.05 
     800     5.142943   0.27019589         0.05 
     900    5.1364684   0.26940135         0.05 
    1000     5.136277   0.26950985         0.05 
    1100    5.1440427   0.26944835         0.05 
    1200    5.1481889   0.26632458         0.05 
    1300    5.1496514    0.2655445         0.05 
    1400    5.1453236   0.26930799         0.05 
    1500    5.1428121   0.26585438         0.05 
    1600    5.1446264   0.26743113         0.05 
    1700    5.1306804   0.27179185         0.05 
    1800    5.1496389   0.26538899         0.05 
    1900    5.1454566   0.27026688         0.05 
    2000    5.1482399   0.26947822         0.05 
    2100    5.1516519   0.26612219         0.05 
    2200    5.1457515   0.26887466         0.05 
    2300    5.1551903   0.26340184         0.05 
    2400    5.1436546   0.26916666         0.05 
    2500     5.153232   0.26638721         0.05 
    2600    5.1383461   0.26755595         0.05 
    2700    5.1414095   0.26669155         0.05 
    2800    5.1546291   0.26466751         0.05 
    2900    5.1381266   0.27147907         0.05 
    3000    5.1394811   0.27232411         0.05 
    3100    5.1662687    0.2621752         0.05 
    3200    5.1579089   0.26538172         0.05 
    3300    5.1407531   0.26902034         0.05 
    3400    5.1548338   0.26576432         0.05 
    3500    5.1507902   0.26537013         0.05 
    3600    5.1567019   0.26237717         0.05 
    3700    5.1609861   0.26099644         0.05 
    3800    5.1499165   0.26667491         0.05 
    3900    5.1392606   0.26772222         0.05 
    4000    5.1434526   0.26801568         0.05 
    4100    5.1465828   0.26761075         0.05 
    4200    5.1554179   0.26644085         0.05 
    4300    5.1313628   0.26965445         0.05 
    4400    5.1493799   0.26585247         0.05 
    4500    5.1535722   0.26403855         0.05 
    4600    5.1576967   0.26391572         0.05 
    4700    5.1395207   0.26931344         0.05 
    4800    5.1452302   0.26829914         0.05 
    4900    5.1437032   0.26642442         0.05 
    5000    5.1605838   0.26476062         0.05 
    5100    5.1486833   0.26731258         0.05 
    5200    5.1529744   0.26300703         0.05 
    5300    5.1339751   0.27037036         0.05 
    5400    5.1521906   0.26444395         0.05 
    5500     5.148304   0.26675172         0.05 
    5600    5.1478391   0.26440805         0.05 
    5700    5.1575064   0.26567485         0.05 
    5800    5.1478503   0.26666846         0.05 
    5900    5.1447086   0.26650702         0.05 
    6000     5.155559   0.26381358         0.05 
    6100    5.1544604   0.26379049         0.05 
    6200    5.1487622    0.2630661         0.05 
    6300    5.1497665   0.26311638         0.05 
    6400    5.1547542   0.26553187         0.05 
    6500    5.1456699   0.26755809         0.05 
    6600    5.1480773   0.26648972         0.05 
    6700    5.1323897   0.27164721         0.05 
    6800    5.1485067   0.26335076         0.05 
    6900    5.1502735   0.26351586         0.05 
    7000    5.1308326   0.27059635         0.05 
    7100    5.1586416   0.26457759         0.05 
    7200     5.143026   0.26578865         0.05 
    7300    5.1467583   0.27056177         0.05 
    7400    5.1462219   0.26648653         0.05 
    7500    5.1445399   0.26671614         0.05 
    7600    5.1436978   0.26814719         0.05 
    7700     5.150284   0.26699548         0.05 
    7800    5.1511834   0.26367326         0.05 
    7900    5.1371983   0.27026581         0.05 
    8000    5.1540754   0.26213444         0.05 
    8100    5.1399432   0.26870628         0.05 
    8200     5.137899   0.26394474         0.05 
    8300    5.1450095   0.26965356         0.05 
    8400    5.1513269   0.26993398         0.05 
    8500    5.1581202    0.2637835         0.05 
    8600    5.1481745   0.26909436         0.05 
    8700    5.1507547   0.26274358         0.05 
    8800    5.1528661   0.26239496         0.05 
    8900    5.1486054   0.26274558         0.05 
    9000    5.1437332   0.26886532         0.05 
    9100    5.1392613   0.26923845         0.05 
    9200     5.141094   0.26576817         0.05 
    9300    5.1447881   0.26774459         0.05 
    9400    5.1453206   0.26580199         0.05 
    9500    5.1483276   0.26543892         0.05 
    9600    5.1445629   0.26622159         0.05 
    9700    5.1521394   0.26319594         0.05 
    9800     5.155012   0.26312794         0.05 
    9900    5.1427441    0.2717658         0.05 
   10000    5.1595317   0.26259136         0.05 
   10100    5.1554608   0.26373622         0.05 
   10200    5.1524193   0.26355937         0.05 
   10300    5.1540992   0.26449866         0.05 
   10400    5.1595019   0.26687132         0.05 
   10500    5.1446758   0.26447672         0.05 
   10600    5.1579064   0.26386754         0.05 
   10700    5.1415817   0.26524551         0.05 
   10800    5.1549964   0.26323771         0.05 
   10900    5.1557314   0.26499046         0.05 
   11000    5.1323994   0.27042487         0.05 
   11100    5.1472163   0.26753856         0.05 
   11200    5.1498568   0.26501411         0.05 
   11300    5.1376813   0.27037181         0.05 
   11400    5.1486772   0.26408049         0.05 
   11500    5.1407149   0.26704039         0.05 
   11600    5.1334544   0.26878438         0.05 
   11700    5.1517371   0.26474131         0.05 
   11800    5.1481859   0.26578665         0.05 
   11900    5.1197273   0.27384814         0.05 
   12000    5.1485737   0.26492427         0.05 
   12100    5.1498358   0.26353956         0.05 
   12200    5.1372625    0.2686419         0.05 
   12300    5.1331901   0.27145027         0.05 
   12400    5.1464081   0.26623137         0.05 
   12500    5.1413223    0.2674849         0.05 
   12600    5.1444484   0.26569425         0.05 
   12700    5.1534446   0.26565158         0.05 
   12800    5.1498114   0.26534147         0.05 
   12900     5.159505   0.26188745         0.05 
   13000    5.1453045   0.26498312         0.05 
   13100    5.1443512   0.26834179         0.05 
   13200    5.1394612   0.26984007         0.05 
   13300    5.1530206   0.26032582         0.05 
   13400    5.1429704   0.26805275         0.05 
   13500    5.1419164    0.2680126         0.05 
   13600    5.1398543   0.26940958         0.05 
   13700    5.1494819   0.26641482         0.05 
   13800    5.1576215   0.26213499         0.05 
   13900    5.1504439   0.26337028         0.05 
   14000    5.1466245   0.26759855         0.05 
   14100    5.1475437   0.26477807         0.05 
   14200    5.1459896   0.26550175         0.05 
   14300    5.1357851   0.27013071         0.05 
   14400    5.1441904   0.26625204         0.05 
   14500    5.1428893   0.26857476         0.05 
   14600    5.1507106   0.26544708         0.05 
   14700    5.1415956   0.26673026         0.05 
   14800    5.1358972   0.26808204         0.05 
   14900    5.1439827    0.2703686         0.05 
   15000    5.1331924   0.27149704         0.05 
   15100    5.1555527    0.2655333         0.05 
   15200    5.1554766   0.26287619         0.05 
   15300    5.1311077   0.27007187         0.05 
   15400    5.1490628   0.26439934         0.05 
   15500    5.1438619   0.26704682         0.05 
   15600    5.1408274   0.26811222         0.05 
   15700    5.1523653   0.26430821         0.05 
   15800    5.1442091   0.26782394         0.05 
   15900    5.1452799     0.266213         0.05 
   16000    5.1438422    0.2672565         0.05 
   16100    5.1581676   0.26319133         0.05 
   16200    5.1396133   0.26602685         0.05 
   16300    5.1353912   0.26911018         0.05 
   16400      5.13451   0.26734113         0.05 
   16500    5.1438648   0.26953576         0.05 
   16600    5.1433524   0.26650494         0.05 
   16700    5.1430903   0.26577499         0.05 
   16800    5.1420386   0.26853223         0.05 
   16900    5.1444122   0.26705066         0.05 
   17000    5.1411084   0.26604092         0.05 
   17100    5.1511253   0.26463494         0.05 
   17200    5.1458016   0.26559464         0.05 
   17300    5.1359447    0.2680731         0.05 
   17400    5.1328543   0.26820334         0.05 
   17500    5.1430675   0.26785272         0.05 
   17600    5.1368245   0.27062385         0.05 
   17700    5.1437794   0.26910001         0.05 
   17800    5.1574658   0.26275181         0.05 
   17900    5.1414651   0.26986845         0.05 
   18000    5.1262369   0.27320586         0.05 
   18100    5.1497962   0.26434285         0.05 
   18200    5.1347604   0.27191911         0.05 
   18300    5.1397304   0.26813977         0.05 
   18400    5.1423078     0.266319         0.05 
   18500    5.1337572   0.27109265         0.05 
   18600    5.1492137   0.26577387         0.05 
   18700    5.1400574   0.27064413         0.05 
   18800    5.1486211   0.26744383         0.05 
   18900    5.1422677   0.26730047         0.05 
   19000    5.1471039   0.26489166         0.05 
   19100    5.1336185   0.26893615         0.05 
   19200    5.1391002   0.26921694         0.05 
   19300    5.1473985   0.26763475         0.05 
   19400    5.1436127   0.26521126         0.05 
   19500    5.1334912   0.26645114         0.05 
   19600    5.1516782   0.26664613         0.05 
   19700    5.1484335   0.26340122         0.05 
   19800    5.1454257    0.2671791         0.05 
   19900    5.1372047   0.26853037         0.05 
   20000    5.1433695   0.26558309         0.05 
Loop time of 2.99293 on 4 procs for 20000 steps with 4000 atoms

Performance: 2886799.386 tau/day, 6682.406 timesteps/s
94.9% CPU use with 4 MPI tasks x 1 OpenMP threads

MPI task timing breakdown:
Section |  min time  |  avg time  |  max time  |%varavg| %total
---------------------------------------------------------------
Pair    | 1.0575     | 1.0817     | 1.1034     |   1.7 | 36.14
Neigh   | 0.86327    | 0.88629    | 0.9223     |   2.4 | 29.61
Comm    | 0.72424    | 0.80639    | 0.86405    |   5.8 | 26.94
Output  | 0.0047998  | 0.010481   | 0.026787   |   9.2 |  0.35
Modify  | 0.15393    | 0.15673    | 0.16135    |   0.7 |  5.24
Other   |            | 0.05139    |            |       |  1.72

Nlocal:    1000 ave 1052 max 955 min
Histogram: 1 0 0 1 1 0 0 0 0 1
Nghost:    969.25 ave 998 max 950 min
Histogram: 1 0 1 1 0 0 0 0 0 1
Neighs:    3719.5 ave 4057 max 3396 min
Histogram: 1 0 0 0 2 0 0 0 0 1

Total # of neighbors = 14878
Ave neighs/atom = 3.7195
Neighbor list builds = 2000
Dangerous builds = 2000

clear
OMP_NUM_THREADS environment is not set. Defaulting to 1 thread. (src/comm.cpp:93)
  using 1 OpenMP thread(s) per MPI task
next rho
jump SELF rloop

clear
OMP_NUM_THREADS environment is not set. Defaulting to 1 thread. (src/comm.cpp:93)
  using 1 OpenMP thread(s) per MPI task
next T
jump SELF tloop
label rloop

variable rho index 0.001 0.005 0.01 0.05
variable T index 1e-8 1 2.5 5 10

units lj
dimension 3
boundary p p p
atom_style atomic

lattice fcc ${rho}
lattice fcc 0.001
Lattice spacing in x,y,z = 15.874 15.874 15.874
region simbox block 0 10 0 10 0 10
create_box 1 simbox
Created orthogonal box = (0 0 0) to (158.74 158.74 158.74)
  2 by 1 by 2 MPI processor grid
create_atoms 1 box
Created 4000 atoms
  create_atoms CPU = 0.000179052 secs

mass 1 1.0
velocity all create ${T} 87287 dist uniform
velocity all create 10 87287 dist uniform

pair_style lj/cut 3.0
pair_coeff 1 1 1.0 1.0 3.0

fix f all nve

# A log file for each T
log log.T${T} append
log log.T10 append
