
# dump 1 all custom 100 dump.PofT_${T} id type c_Ep c_Ek
thermo 100
thermo_style custom step temp press density
run 20000
Neighbor list info ...
  update every 1 steps, delay 10 steps, check yes
  max neighbors/atom: 2000, page size: 100000
  master list distance cutoff = 3.3
  ghost atom cutoff = 3.3
  binsize = 1.65, bins = 97 97 97
  1 neighbor lists, perpetual/occasional/extra = 1 0 0
  (1) pair lj/cut, perpetual
      attributes: half, newton on
      pair build: half/bin/atomonly/newton
      stencil: half/bin/3d/newton
      bin: standard
Per MPI rank memory allocation (min/avg/max) = 4.201 | 4.201 | 4.201 Mbytes
Step Temp Press Density 
       0        1e-08   9.9975e-12        0.001 
     100        1e-08   9.9975e-12        0.001 
     200        1e-08   9.9975e-12        0.001 
     300        1e-08   9.9975e-12        0.001 
     400        1e-08   9.9975e-12        0.001 
     500        1e-08   9.9975e-12        0.001 
     600        1e-08   9.9975e-12        0.001 
     700        1e-08   9.9975e-12        0.001 
     800        1e-08   9.9975e-12        0.001 
     900        1e-08   9.9975e-12        0.001 
    1000        1e-08   9.9975e-12        0.001 
    1100        1e-08   9.9975e-12        0.001 
    1200        1e-08   9.9975e-12        0.001 
    1300        1e-08   9.9975e-12        0.001 
    1400        1e-08   9.9975e-12        0.001 
    1500        1e-08   9.9975e-12        0.001 
    1600        1e-08   9.9975e-12        0.001 
    1700        1e-08   9.9975e-12        0.001 
    1800        1e-08   9.9975e-12        0.001 
    1900        1e-08   9.9975e-12        0.001 
    2000        1e-08   9.9975e-12        0.001 
    2100        1e-08   9.9975e-12        0.001 
    2200        1e-08   9.9975e-12        0.001 
    2300        1e-08   9.9975e-12        0.001 
    2400        1e-08   9.9975e-12        0.001 
    2500        1e-08   9.9975e-12        0.001 
    2600        1e-08   9.9975e-12        0.001 
    2700        1e-08   9.9975e-12        0.001 
    2800        1e-08   9.9975e-12        0.001 
    2900        1e-08   9.9975e-12        0.001 
    3000        1e-08   9.9975e-12        0.001 
    3100        1e-08   9.9975e-12        0.001 
    3200        1e-08   9.9975e-12        0.001 
    3300        1e-08   9.9975e-12        0.001 
    3400        1e-08   9.9975e-12        0.001 
    3500        1e-08   9.9975e-12        0.001 
    3600        1e-08   9.9975e-12        0.001 
    3700        1e-08   9.9975e-12        0.001 
    3800        1e-08   9.9975e-12        0.001 
    3900        1e-08   9.9975e-12        0.001 
    4000        1e-08   9.9975e-12        0.001 
    4100        1e-08   9.9975e-12        0.001 
    4200        1e-08   9.9975e-12        0.001 
    4300        1e-08   9.9975e-12        0.001 
    4400        1e-08   9.9975e-12        0.001 
    4500        1e-08   9.9975e-12        0.001 
    4600        1e-08   9.9975e-12        0.001 
    4700        1e-08   9.9975e-12        0.001 
    4800        1e-08   9.9975e-12        0.001 
    4900        1e-08   9.9975e-12        0.001 
    5000        1e-08   9.9975e-12        0.001 
    5100        1e-08   9.9975e-12        0.001 
    5200        1e-08   9.9975e-12        0.001 
    5300        1e-08   9.9975e-12        0.001 
    5400        1e-08   9.9975e-12        0.001 
    5500        1e-08   9.9975e-12        0.001 
    5600        1e-08   9.9975e-12        0.001 
    5700        1e-08   9.9975e-12        0.001 
    5800        1e-08   9.9975e-12        0.001 
    5900        1e-08   9.9975e-12        0.001 
    6000        1e-08   9.9975e-12        0.001 
    6100        1e-08   9.9975e-12        0.001 
    6200        1e-08   9.9975e-12        0.001 
    6300        1e-08   9.9975e-12        0.001 
    6400        1e-08   9.9975e-12        0.001 
    6500        1e-08   9.9975e-12        0.001 
    6600        1e-08   9.9975e-12        0.001 
    6700        1e-08   9.9975e-12        0.001 
    6800        1e-08   9.9975e-12        0.001 
    6900        1e-08   9.9975e-12        0.001 
    7000        1e-08   9.9975e-12        0.001 
    7100        1e-08   9.9975e-12        0.001 
    7200        1e-08   9.9975e-12        0.001 
    7300        1e-08   9.9975e-12        0.001 
    7400        1e-08   9.9975e-12        0.001 
    7500        1e-08   9.9975e-12        0.001 
    7600        1e-08   9.9975e-12        0.001 
    7700        1e-08   9.9975e-12        0.001 
    7800        1e-08   9.9975e-12        0.001 
    7900        1e-08   9.9975e-12        0.001 
    8000        1e-08   9.9975e-12        0.001 
    8100        1e-08   9.9975e-12        0.001 
    8200        1e-08   9.9975e-12        0.001 
    8300        1e-08   9.9975e-12        0.001 
    8400        1e-08   9.9975e-12        0.001 
    8500        1e-08   9.9975e-12        0.001 
    8600        1e-08   9.9975e-12        0.001 
    8700        1e-08   9.9975e-12        0.001 
    8800        1e-08   9.9975e-12        0.001 
    8900        1e-08   9.9975e-12        0.001 
    9000        1e-08   9.9975e-12        0.001 
    9100        1e-08   9.9975e-12        0.001 
    9200        1e-08   9.9975e-12        0.001 
    9300        1e-08   9.9975e-12        0.001 
    9400        1e-08   9.9975e-12        0.001 
    9500        1e-08   9.9975e-12        0.001 
    9600        1e-08   9.9975e-12        0.001 
    9700        1e-08   9.9975e-12        0.001 
    9800        1e-08   9.9975e-12        0.001 
    9900        1e-08   9.9975e-12        0.001 
   10000        1e-08   9.9975e-12        0.001 
   10100        1e-08   9.9975e-12        0.001 
   10200        1e-08   9.9975e-12        0.001 
   10300        1e-08   9.9975e-12        0.001 
   10400        1e-08   9.9975e-12        0.001 
   10500        1e-08   9.9975e-12        0.001 
   10600        1e-08   9.9975e-12        0.001 
   10700        1e-08   9.9975e-12        0.001 
   10800        1e-08   9.9975e-12        0.001 
   10900        1e-08   9.9975e-12        0.001 
   11000        1e-08   9.9975e-12        0.001 
   11100        1e-08   9.9975e-12        0.001 
   11200        1e-08   9.9975e-12        0.001 
   11300        1e-08   9.9975e-12        0.001 
   11400        1e-08   9.9975e-12        0.001 
   11500        1e-08   9.9975e-12        0.001 
   11600        1e-08   9.9975e-12        0.001 
   11700        1e-08   9.9975e-12        0.001 
   11800        1e-08   9.9975e-12        0.001 
   11900        1e-08   9.9975e-12        0.001 
   12000        1e-08   9.9975e-12        0.001 
   12100        1e-08   9.9975e-12        0.001 
   12200        1e-08   9.9975e-12        0.001 
   12300        1e-08   9.9975e-12        0.001 
   12400        1e-08   9.9975e-12        0.001 
   12500        1e-08   9.9975e-12        0.001 
   12600        1e-08   9.9975e-12        0.001 
   12700        1e-08   9.9975e-12        0.001 
   12800        1e-08   9.9975e-12        0.001 
   12900        1e-08   9.9975e-12        0.001 
   13000        1e-08   9.9975e-12        0.001 
   13100        1e-08   9.9975e-12        0.001 
   13200        1e-08   9.9975e-12        0.001 
   13300        1e-08   9.9975e-12        0.001 
   13400        1e-08   9.9975e-12        0.001 
   13500        1e-08   9.9975e-12        0.001 
   13600        1e-08   9.9975e-12        0.001 
   13700        1e-08   9.9975e-12        0.001 
   13800        1e-08   9.9975e-12        0.001 
   13900        1e-08   9.9975e-12        0.001 
   14000        1e-08   9.9975e-12        0.001 
   14100        1e-08   9.9975e-12        0.001 
   14200        1e-08   9.9975e-12        0.001 
   14300        1e-08   9.9975e-12        0.001 
   14400        1e-08   9.9975e-12        0.001 
   14500        1e-08   9.9975e-12        0.001 
   14600        1e-08   9.9975e-12        0.001 
   14700        1e-08   9.9975e-12        0.001 
   14800        1e-08   9.9975e-12        0.001 
   14900        1e-08   9.9975e-12        0.001 
   15000        1e-08   9.9975e-12        0.001 
   15100        1e-08   9.9975e-12        0.001 
   15200        1e-08   9.9975e-12        0.001 
   15300        1e-08   9.9975e-12        0.001 
   15400        1e-08   9.9975e-12        0.001 
   15500        1e-08   9.9975e-12        0.001 
   15600        1e-08   9.9975e-12        0.001 
   15700        1e-08   9.9975e-12        0.001 
   15800        1e-08   9.9975e-12        0.001 
   15900        1e-08   9.9975e-12        0.001 
   16000        1e-08   9.9975e-12        0.001 
   16100        1e-08   9.9975e-12        0.001 
   16200        1e-08   9.9975e-12        0.001 
   16300        1e-08   9.9975e-12        0.001 
   16400        1e-08   9.9975e-12        0.001 
   16500        1e-08   9.9975e-12        0.001 
   16600        1e-08   9.9975e-12        0.001 
   16700        1e-08   9.9975e-12        0.001 
   16800        1e-08   9.9975e-12        0.001 
   16900        1e-08   9.9975e-12        0.001 
   17000        1e-08   9.9975e-12        0.001 
   17100        1e-08   9.9975e-12        0.001 
   17200        1e-08   9.9975e-12        0.001 
   17300        1e-08   9.9975e-12        0.001 
   17400        1e-08   9.9975e-12        0.001 
   17500        1e-08   9.9975e-12        0.001 
   17600        1e-08   9.9975e-12        0.001 
   17700        1e-08   9.9975e-12        0.001 
   17800        1e-08   9.9975e-12        0.001 
   17900        1e-08   9.9975e-12        0.001 
   18000        1e-08   9.9975e-12        0.001 
   18100        1e-08   9.9975e-12        0.001 
   18200        1e-08   9.9975e-12        0.001 
   18300        1e-08   9.9975e-12        0.001 
   18400        1e-08   9.9975e-12        0.001 
   18500        1e-08   9.9975e-12        0.001 
   18600        1e-08   9.9975e-12        0.001 
   18700        1e-08   9.9975e-12        0.001 
   18800        1e-08   9.9975e-12        0.001 
   18900        1e-08   9.9975e-12        0.001 
   19000        1e-08   9.9975e-12        0.001 
   19100        1e-08   9.9975e-12        0.001 
   19200        1e-08   9.9975e-12        0.001 
   19300        1e-08   9.9975e-12        0.001 
   19400        1e-08   9.9975e-12        0.001 
   19500        1e-08   9.9975e-12        0.001 
   19600        1e-08   9.9975e-12        0.001 
   19700        1e-08   9.9975e-12        0.001 
   19800        1e-08   9.9975e-12        0.001 
   19900        1e-08   9.9975e-12        0.001 
   20000        1e-08   9.9975e-12        0.001 
Loop time of 0.506152 on 4 procs for 20000 steps with 4000 atoms

Performance: 17069973.956 tau/day, 39513.829 timesteps/s
92.1% CPU use with 4 MPI tasks x 1 OpenMP threads

MPI task timing breakdown:
Section |  min time  |  avg time  |  max time  |%varavg| %total
---------------------------------------------------------------
Pair    | 0.047119   | 0.048117   | 0.049164   |   0.4 |  9.51
Neigh   | 0          | 0          | 0          |   0.0 |  0.00
Comm    | 0.12625    | 0.14684    | 0.16044    |   3.3 | 29.01
Output  | 0.0035918  | 0.0078145  | 0.020323   |   8.2 |  1.54
Modify  | 0.15503    | 0.15664    | 0.15863    |   0.3 | 30.95
Other   |            | 0.1467     |            |       | 28.99

Nlocal:    1000 ave 1000 max 1000 min
Histogram: 4 0 0 0 0 0 0 0 0 0
Nghost:    271 ave 271 max 271 min
Histogram: 4 0 0 0 0 0 0 0 0 0
Neighs:    0 ave 0 max 0 min
Histogram: 4 0 0 0 0 0 0 0 0 0

Total # of neighbors = 0
Ave neighs/atom = 0
Neighbor list builds = 0
Dangerous builds = 0

clear
OMP_NUM_THREADS environment is not set. Defaulting to 1 thread. (src/comm.cpp:93)
  using 1 OpenMP thread(s) per MPI task
next rho
jump SELF rloop

variable rho index 0.001 0.005 0.01 0.05
variable T index 1e-8 1 2.5 5 10

units lj
dimension 3
boundary p p p
atom_style atomic

lattice fcc ${rho}
lattice fcc 0.005
Lattice spacing in x,y,z = 9.28318 9.28318 9.28318
region simbox block 0 10 0 10 0 10
create_box 1 simbox
Created orthogonal box = (0 0 0) to (92.8318 92.8318 92.8318)
  1 by 2 by 2 MPI processor grid
create_atoms 1 box
Created 4000 atoms
  create_atoms CPU = 0.000241995 secs

mass 1 1.0
velocity all create ${T} 87287 dist uniform
velocity all create 1e-8 87287 dist uniform

pair_style lj/cut 3.0
pair_coeff 1 1 1.0 1.0 3.0

fix f all nve

# A log file for each T
log log.T${T} append
log log.T1e-8 append

# dump 1 all custom 100 dump.PofT_${T} id type c_Ep c_Ek
thermo 100
thermo_style custom step temp press density
run 20000
Neighbor list info ...
  update every 1 steps, delay 10 steps, check yes
  max neighbors/atom: 2000, page size: 100000
  master list distance cutoff = 3.3
  ghost atom cutoff = 3.3
  binsize = 1.65, bins = 57 57 57
  1 neighbor lists, perpetual/occasional/extra = 1 0 0
  (1) pair lj/cut, perpetual
      attributes: half, newton on
      pair build: half/bin/atomonly/newton
      stencil: half/bin/3d/newton
      bin: standard
Per MPI rank memory allocation (min/avg/max) = 3.339 | 3.339 | 3.339 Mbytes
Step Temp Press Density 
       0        1e-08  4.99875e-11        0.005 
     100        1e-08  4.99875e-11        0.005 
     200        1e-08  4.99875e-11        0.005 
     300        1e-08  4.99875e-11        0.005 
     400        1e-08  4.99875e-11        0.005 
     500        1e-08  4.99875e-11        0.005 
     600        1e-08  4.99875e-11        0.005 
     700        1e-08  4.99875e-11        0.005 
     800        1e-08  4.99875e-11        0.005 
     900        1e-08  4.99875e-11        0.005 
    1000        1e-08  4.99875e-11        0.005 
    1100        1e-08  4.99875e-11        0.005 
    1200        1e-08  4.99875e-11        0.005 
    1300        1e-08  4.99875e-11        0.005 
    1400        1e-08  4.99875e-11        0.005 
    1500        1e-08  4.99875e-11        0.005 
    1600        1e-08  4.99875e-11        0.005 
    1700        1e-08  4.99875e-11        0.005 
    1800        1e-08  4.99875e-11        0.005 
    1900        1e-08  4.99875e-11        0.005 
    2000        1e-08  4.99875e-11        0.005 
    2100        1e-08  4.99875e-11        0.005 
    2200        1e-08  4.99875e-11        0.005 
    2300        1e-08  4.99875e-11        0.005 
    2400        1e-08  4.99875e-11        0.005 
    2500        1e-08  4.99875e-11        0.005 
    2600        1e-08  4.99875e-11        0.005 
    2700        1e-08  4.99875e-11        0.005 
    2800        1e-08  4.99875e-11        0.005 
    2900        1e-08  4.99875e-11        0.005 
    3000        1e-08  4.99875e-11        0.005 
    3100        1e-08  4.99875e-11        0.005 
    3200        1e-08  4.99875e-11        0.005 
    3300        1e-08  4.99875e-11        0.005 
    3400        1e-08  4.99875e-11        0.005 
    3500        1e-08  4.99875e-11        0.005 
    3600        1e-08  4.99875e-11        0.005 
    3700        1e-08  4.99875e-11        0.005 
    3800        1e-08  4.99875e-11        0.005 
    3900        1e-08  4.99875e-11        0.005 
    4000        1e-08  4.99875e-11        0.005 
    4100        1e-08  4.99875e-11        0.005 
    4200        1e-08  4.99875e-11        0.005 
    4300        1e-08  4.99875e-11        0.005 
    4400        1e-08  4.99875e-11        0.005 
    4500        1e-08  4.99875e-11        0.005 
    4600        1e-08  4.99875e-11        0.005 
    4700        1e-08  4.99875e-11        0.005 
    4800        1e-08  4.99875e-11        0.005 
    4900        1e-08  4.99875e-11        0.005 
    5000        1e-08  4.99875e-11        0.005 
    5100        1e-08  4.99875e-11        0.005 
    5200        1e-08  4.99875e-11        0.005 
    5300        1e-08  4.99875e-11        0.005 
    5400        1e-08  4.99875e-11        0.005 
    5500        1e-08  4.99875e-11        0.005 
    5600        1e-08  4.99875e-11        0.005 
    5700        1e-08  4.99875e-11        0.005 
    5800        1e-08  4.99875e-11        0.005 
    5900        1e-08  4.99875e-11        0.005 
    6000        1e-08  4.99875e-11        0.005 
    6100        1e-08  4.99875e-11        0.005 
    6200        1e-08  4.99875e-11        0.005 
    6300        1e-08  4.99875e-11        0.005 
    6400        1e-08  4.99875e-11        0.005 
    6500        1e-08  4.99875e-11        0.005 
    6600        1e-08  4.99875e-11        0.005 
    6700        1e-08  4.99875e-11        0.005 
    6800        1e-08  4.99875e-11        0.005 
    6900        1e-08  4.99875e-11        0.005 
    7000        1e-08  4.99875e-11        0.005 
    7100        1e-08  4.99875e-11        0.005 
    7200        1e-08  4.99875e-11        0.005 
    7300        1e-08  4.99875e-11        0.005 
    7400        1e-08  4.99875e-11        0.005 
    7500        1e-08  4.99875e-11        0.005 
    7600        1e-08  4.99875e-11        0.005 
    7700        1e-08  4.99875e-11        0.005 
    7800        1e-08  4.99875e-11        0.005 
    7900        1e-08  4.99875e-11        0.005 
    8000        1e-08  4.99875e-11        0.005 
    8100        1e-08  4.99875e-11        0.005 
    8200        1e-08  4.99875e-11        0.005 
    8300        1e-08  4.99875e-11        0.005 
    8400        1e-08  4.99875e-11        0.005 
    8500        1e-08  4.99875e-11        0.005 
    8600        1e-08  4.99875e-11        0.005 
    8700        1e-08  4.99875e-11        0.005 
    8800        1e-08  4.99875e-11        0.005 
    8900        1e-08  4.99875e-11        0.005 
    9000        1e-08  4.99875e-11        0.005 
    9100        1e-08  4.99875e-11        0.005 
    9200        1e-08  4.99875e-11        0.005 
    9300        1e-08  4.99875e-11        0.005 
    9400        1e-08  4.99875e-11        0.005 
    9500        1e-08  4.99875e-11        0.005 
    9600        1e-08  4.99875e-11        0.005 
    9700        1e-08  4.99875e-11        0.005 
    9800        1e-08  4.99875e-11        0.005 
    9900        1e-08  4.99875e-11        0.005 
   10000        1e-08  4.99875e-11        0.005 
   10100        1e-08  4.99875e-11        0.005 
   10200        1e-08  4.99875e-11        0.005 
   10300        1e-08  4.99875e-11        0.005 
   10400        1e-08  4.99875e-11        0.005 
   10500        1e-08  4.99875e-11        0.005 
   10600        1e-08  4.99875e-11        0.005 
   10700        1e-08  4.99875e-11        0.005 
   10800        1e-08  4.99875e-11        0.005 
   10900        1e-08  4.99875e-11        0.005 
   11000        1e-08  4.99875e-11        0.005 
   11100        1e-08  4.99875e-11        0.005 
   11200        1e-08  4.99875e-11        0.005 
   11300        1e-08  4.99875e-11        0.005 
   11400        1e-08  4.99875e-11        0.005 
   11500        1e-08  4.99875e-11        0.005 
   11600        1e-08  4.99875e-11        0.005 
   11700        1e-08  4.99875e-11        0.005 
   11800        1e-08  4.99875e-11        0.005 
   11900        1e-08  4.99875e-11        0.005 
   12000        1e-08  4.99875e-11        0.005 
   12100        1e-08  4.99875e-11        0.005 
   12200        1e-08  4.99875e-11        0.005 
   12300        1e-08  4.99875e-11        0.005 
   12400        1e-08  4.99875e-11        0.005 
   12500        1e-08  4.99875e-11        0.005 
   12600        1e-08  4.99875e-11        0.005 
   12700        1e-08  4.99875e-11        0.005 
   12800        1e-08  4.99875e-11        0.005 
   12900        1e-08  4.99875e-11        0.005 
   13000        1e-08  4.99875e-11        0.005 
   13100        1e-08  4.99875e-11        0.005 
   13200        1e-08  4.99875e-11        0.005 
   13300        1e-08  4.99875e-11        0.005 
   13400        1e-08  4.99875e-11        0.005 
   13500        1e-08  4.99875e-11        0.005 
   13600        1e-08  4.99875e-11        0.005 
   13700        1e-08  4.99875e-11        0.005 
   13800        1e-08  4.99875e-11        0.005 
   13900        1e-08  4.99875e-11        0.005 
   14000        1e-08  4.99875e-11        0.005 
   14100        1e-08  4.99875e-11        0.005 
   14200        1e-08  4.99875e-11        0.005 
   14300        1e-08  4.99875e-11        0.005 
   14400        1e-08  4.99875e-11        0.005 
   14500        1e-08  4.99875e-11        0.005 
   14600        1e-08  4.99875e-11        0.005 
   14700        1e-08  4.99875e-11        0.005 
   14800        1e-08  4.99875e-11        0.005 
   14900        1e-08  4.99875e-11        0.005 
   15000        1e-08  4.99875e-11        0.005 
   15100        1e-08  4.99875e-11        0.005 
   15200        1e-08  4.99875e-11        0.005 
   15300        1e-08  4.99875e-11        0.005 
   15400        1e-08  4.99875e-11        0.005 
   15500        1e-08  4.99875e-11        0.005 
   15600        1e-08  4.99875e-11        0.005 
   15700        1e-08  4.99875e-11        0.005 
   15800        1e-08  4.99875e-11        0.005 
   15900        1e-08  4.99875e-11        0.005 
   16000        1e-08  4.99875e-11        0.005 
   16100        1e-08  4.99875e-11        0.005 
   16200        1e-08  4.99875e-11        0.005 
   16300        1e-08  4.99875e-11        0.005 
   16400        1e-08  4.99875e-11        0.005 
   16500        1e-08  4.99875e-11        0.005 
   16600        1e-08  4.99875e-11        0.005 
   16700        1e-08  4.99875e-11        0.005 
   16800        1e-08  4.99875e-11        0.005 
   16900        1e-08  4.99875e-11        0.005 
   17000        1e-08  4.99875e-11        0.005 
   17100        1e-08  4.99875e-11        0.005 
   17200        1e-08  4.99875e-11        0.005 
   17300        1e-08  4.99875e-11        0.005 
   17400        1e-08  4.99875e-11        0.005 
   17500        1e-08  4.99875e-11        0.005 
   17600        1e-08  4.99875e-11        0.005 
   17700        1e-08  4.99875e-11        0.005 
   17800        1e-08  4.99875e-11        0.005 
   17900        1e-08  4.99875e-11        0.005 
   18000        1e-08  4.99875e-11        0.005 
   18100        1e-08  4.99875e-11        0.005 
   18200        1e-08  4.99875e-11        0.005 
   18300        1e-08  4.99875e-11        0.005 
   18400        1e-08  4.99875e-11        0.005 
   18500        1e-08  4.99875e-11        0.005 
   18600        1e-08  4.99875e-11        0.005 
   18700        1e-08  4.99875e-11        0.005 
   18800        1e-08  4.99875e-11        0.005 
   18900        1e-08  4.99875e-11        0.005 
   19000        1e-08  4.99875e-11        0.005 
   19100        1e-08  4.99875e-11        0.005 
   19200        1e-08  4.99875e-11        0.005 
   19300        1e-08  4.99875e-11        0.005 
   19400        1e-08  4.99875e-11        0.005 
   19500        1e-08  4.99875e-11        0.005 
   19600        1e-08  4.99875e-11        0.005 
   19700        1e-08  4.99875e-11        0.005 
   19800        1e-08  4.99875e-11        0.005 
   19900        1e-08  4.99875e-11        0.005 
   20000        1e-08  4.99875e-11        0.005 
Loop time of 0.497222 on 4 procs for 20000 steps with 4000 atoms

Performance: 17376554.273 tau/day, 40223.505 timesteps/s
92.4% CPU use with 4 MPI tasks x 1 OpenMP threads

MPI task timing breakdown:
Section |  min time  |  avg time  |  max time  |%varavg| %total
---------------------------------------------------------------
Pair    | 0.046983   | 0.047897   | 0.048844   |   0.3 |  9.63
Neigh   | 0          | 0          | 0          |   0.0 |  0.00
Comm    | 0.13119    | 0.14124    | 0.15049    |   1.9 | 28.41
Output  | 0.0045831  | 0.0090559  | 0.021786   |   7.7 |  1.82
Modify  | 0.15567    | 0.15914    | 0.16272    |   0.7 | 32.01
Other   |            | 0.1399     |            |       | 28.13

Nlocal:    1000 ave 1000 max 1000 min
Histogram: 4 0 0 0 0 0 0 0 0 0
Nghost:    271 ave 271 max 271 min
Histogram: 4 0 0 0 0 0 0 0 0 0
Neighs:    0 ave 0 max 0 min
Histogram: 4 0 0 0 0 0 0 0 0 0

Total # of neighbors = 0
Ave neighs/atom = 0
Neighbor list builds = 0
Dangerous builds = 0

clear
OMP_NUM_THREADS environment is not set. Defaulting to 1 thread. (src/comm.cpp:93)
  using 1 OpenMP thread(s) per MPI task
next rho
jump SELF rloop

variable rho index 0.001 0.005 0.01 0.05
variable T index 1e-8 1 2.5 5 10

units lj
dimension 3
boundary p p p
atom_style atomic

lattice fcc ${rho}
lattice fcc 0.01
Lattice spacing in x,y,z = 7.36806 7.36806 7.36806
region simbox block 0 10 0 10 0 10
create_box 1 simbox
Created orthogonal box = (0 0 0) to (73.6806 73.6806 73.6806)
  1 by 2 by 2 MPI processor grid
create_atoms 1 box
Created 4000 atoms
  create_atoms CPU = 0.00020504 secs

mass 1 1.0
velocity all create ${T} 87287 dist uniform
velocity all create 1e-8 87287 dist uniform

pair_style lj/cut 3.0
pair_coeff 1 1 1.0 1.0 3.0

fix f all nve

# A log file for each T
log log.T${T} append
log log.T1e-8 append

# dump 1 all custom 100 dump.PofT_${T} id type c_Ep c_Ek
thermo 100
thermo_style custom step temp press density
run 20000
Neighbor list info ...
  update every 1 steps, delay 10 steps, check yes
  max neighbors/atom: 2000, page size: 100000
  master list distance cutoff = 3.3
  ghost atom cutoff = 3.3
  binsize = 1.65, bins = 45 45 45
  1 neighbor lists, perpetual/occasional/extra = 1 0 0
  (1) pair lj/cut, perpetual
      attributes: half, newton on
      pair build: half/bin/atomonly/newton
      stencil: half/bin/3d/newton
      bin: standard
Per MPI rank memory allocation (min/avg/max) = 3.215 | 3.215 | 3.215 Mbytes
Step Temp Press Density 
       0        1e-08   9.9975e-11         0.01 
     100        1e-08   9.9975e-11         0.01 
     200        1e-08   9.9975e-11         0.01 
     300        1e-08   9.9975e-11         0.01 
     400        1e-08   9.9975e-11         0.01 
     500        1e-08   9.9975e-11         0.01 
     600        1e-08   9.9975e-11         0.01 
     700        1e-08   9.9975e-11         0.01 
     800        1e-08   9.9975e-11         0.01 
     900        1e-08   9.9975e-11         0.01 
    1000        1e-08   9.9975e-11         0.01 
    1100        1e-08   9.9975e-11         0.01 
    1200        1e-08   9.9975e-11         0.01 
    1300        1e-08   9.9975e-11         0.01 
    1400        1e-08   9.9975e-11         0.01 
    1500        1e-08   9.9975e-11         0.01 
    1600        1e-08   9.9975e-11         0.01 
    1700        1e-08   9.9975e-11         0.01 
    1800        1e-08   9.9975e-11         0.01 
    1900        1e-08   9.9975e-11         0.01 
    2000        1e-08   9.9975e-11         0.01 
    2100        1e-08   9.9975e-11         0.01 
    2200        1e-08   9.9975e-11         0.01 
    2300        1e-08   9.9975e-11         0.01 
    2400        1e-08   9.9975e-11         0.01 
    2500        1e-08   9.9975e-11         0.01 
    2600        1e-08   9.9975e-11         0.01 
    2700        1e-08   9.9975e-11         0.01 
    2800        1e-08   9.9975e-11         0.01 
    2900        1e-08   9.9975e-11         0.01 
    3000        1e-08   9.9975e-11         0.01 
    3100        1e-08   9.9975e-11         0.01 
    3200        1e-08   9.9975e-11         0.01 
    3300        1e-08   9.9975e-11         0.01 
    3400        1e-08   9.9975e-11         0.01 
    3500        1e-08   9.9975e-11         0.01 
    3600        1e-08   9.9975e-11         0.01 
    3700        1e-08   9.9975e-11         0.01 
    3800        1e-08   9.9975e-11         0.01 
    3900        1e-08   9.9975e-11         0.01 
    4000        1e-08   9.9975e-11         0.01 
    4100        1e-08   9.9975e-11         0.01 
    4200        1e-08   9.9975e-11         0.01 
    4300        1e-08   9.9975e-11         0.01 
    4400        1e-08   9.9975e-11         0.01 
    4500        1e-08   9.9975e-11         0.01 
    4600        1e-08   9.9975e-11         0.01 
    4700        1e-08   9.9975e-11         0.01 
    4800        1e-08   9.9975e-11         0.01 
    4900        1e-08   9.9975e-11         0.01 
    5000        1e-08   9.9975e-11         0.01 
    5100        1e-08   9.9975e-11         0.01 
    5200        1e-08   9.9975e-11         0.01 
    5300        1e-08   9.9975e-11         0.01 
    5400        1e-08   9.9975e-11         0.01 
    5500        1e-08   9.9975e-11         0.01 
    5600        1e-08   9.9975e-11         0.01 
    5700        1e-08   9.9975e-11         0.01 
    5800        1e-08   9.9975e-11         0.01 
    5900        1e-08   9.9975e-11         0.01 
    6000        1e-08   9.9975e-11         0.01 
    6100        1e-08   9.9975e-11         0.01 
    6200        1e-08   9.9975e-11         0.01 
    6300        1e-08   9.9975e-11         0.01 
    6400        1e-08   9.9975e-11         0.01 
    6500        1e-08   9.9975e-11         0.01 
    6600        1e-08   9.9975e-11         0.01 
    6700        1e-08   9.9975e-11         0.01 
    6800        1e-08   9.9975e-11         0.01 
    6900        1e-08   9.9975e-11         0.01 
    7000        1e-08   9.9975e-11         0.01 
    7100        1e-08   9.9975e-11         0.01 
    7200        1e-08   9.9975e-11         0.01 
    7300        1e-08   9.9975e-11         0.01 
    7400        1e-08   9.9975e-11         0.01 
    7500        1e-08   9.9975e-11         0.01 
    7600        1e-08   9.9975e-11         0.01 
    7700        1e-08   9.9975e-11         0.01 
    7800        1e-08   9.9975e-11         0.01 
    7900        1e-08   9.9975e-11         0.01 
    8000        1e-08   9.9975e-11         0.01 
    8100        1e-08   9.9975e-11         0.01 
    8200        1e-08   9.9975e-11         0.01 
    8300        1e-08   9.9975e-11         0.01 
    8400        1e-08   9.9975e-11         0.01 
    8500        1e-08   9.9975e-11         0.01 
    8600        1e-08   9.9975e-11         0.01 
    8700        1e-08   9.9975e-11         0.01 
    8800        1e-08   9.9975e-11         0.01 
    8900        1e-08   9.9975e-11         0.01 
    9000        1e-08   9.9975e-11         0.01 
    9100        1e-08   9.9975e-11         0.01 
    9200        1e-08   9.9975e-11         0.01 
    9300        1e-08   9.9975e-11         0.01 
    9400        1e-08   9.9975e-11         0.01 
    9500        1e-08   9.9975e-11         0.01 
    9600        1e-08   9.9975e-11         0.01 
    9700        1e-08   9.9975e-11         0.01 
    9800        1e-08   9.9975e-11         0.01 
    9900        1e-08   9.9975e-11         0.01 
   10000        1e-08   9.9975e-11         0.01 
   10100        1e-08   9.9975e-11         0.01 
   10200        1e-08   9.9975e-11         0.01 
   10300        1e-08   9.9975e-11         0.01 
   10400        1e-08   9.9975e-11         0.01 
   10500        1e-08   9.9975e-11         0.01 
   10600        1e-08   9.9975e-11         0.01 
   10700        1e-08   9.9975e-11         0.01 
   10800        1e-08   9.9975e-11         0.01 
   10900        1e-08   9.9975e-11         0.01 
   11000        1e-08   9.9975e-11         0.01 
   11100        1e-08   9.9975e-11         0.01 
   11200        1e-08   9.9975e-11         0.01 
   11300        1e-08   9.9975e-11         0.01 
   11400        1e-08   9.9975e-11         0.01 
   11500        1e-08   9.9975e-11         0.01 
   11600        1e-08   9.9975e-11         0.01 
   11700        1e-08   9.9975e-11         0.01 
   11800        1e-08   9.9975e-11         0.01 
   11900        1e-08   9.9975e-11         0.01 
   12000        1e-08   9.9975e-11         0.01 
   12100        1e-08   9.9975e-11         0.01 
   12200        1e-08   9.9975e-11         0.01 
   12300        1e-08   9.9975e-11         0.01 
   12400        1e-08   9.9975e-11         0.01 
   12500        1e-08   9.9975e-11         0.01 
   12600        1e-08   9.9975e-11         0.01 
   12700        1e-08   9.9975e-11         0.01 
   12800        1e-08   9.9975e-11         0.01 
   12900        1e-08   9.9975e-11         0.01 
   13000        1e-08   9.9975e-11         0.01 
   13100        1e-08   9.9975e-11         0.01 
   13200        1e-08   9.9975e-11         0.01 
   13300        1e-08   9.9975e-11         0.01 
   13400        1e-08   9.9975e-11         0.01 
   13500        1e-08   9.9975e-11         0.01 
   13600        1e-08   9.9975e-11         0.01 
   13700        1e-08   9.9975e-11         0.01 
   13800        1e-08   9.9975e-11         0.01 
   13900        1e-08   9.9975e-11         0.01 
   14000        1e-08   9.9975e-11         0.01 
   14100        1e-08   9.9975e-11         0.01 
   14200        1e-08   9.9975e-11         0.01 
   14300        1e-08   9.9975e-11         0.01 
   14400        1e-08   9.9975e-11         0.01 
   14500        1e-08   9.9975e-11         0.01 
   14600        1e-08   9.9975e-11         0.01 
   14700        1e-08   9.9975e-11         0.01 
   14800        1e-08   9.9975e-11         0.01 
   14900        1e-08   9.9975e-11         0.01 
   15000        1e-08   9.9975e-11         0.01 
   15100        1e-08   9.9975e-11         0.01 
   15200        1e-08   9.9975e-11         0.01 
   15300        1e-08   9.9975e-11         0.01 
   15400        1e-08   9.9975e-11         0.01 
   15500        1e-08   9.9975e-11         0.01 
   15600        1e-08   9.9975e-11         0.01 
   15700        1e-08   9.9975e-11         0.01 
   15800        1e-08   9.9975e-11         0.01 
   15900        1e-08   9.9975e-11         0.01 
   16000        1e-08   9.9975e-11         0.01 
   16100        1e-08   9.9975e-11         0.01 
   16200        1e-08   9.9975e-11         0.01 
   16300        1e-08   9.9975e-11         0.01 
   16400        1e-08   9.9975e-11         0.01 
   16500        1e-08   9.9975e-11         0.01 
   16600        1e-08   9.9975e-11         0.01 
   16700        1e-08   9.9975e-11         0.01 
   16800        1e-08   9.9975e-11         0.01 
   16900        1e-08   9.9975e-11         0.01 
   17000        1e-08   9.9975e-11         0.01 
   17100        1e-08   9.9975e-11         0.01 
   17200        1e-08   9.9975e-11         0.01 
   17300        1e-08   9.9975e-11         0.01 
   17400        1e-08   9.9975e-11         0.01 
   17500        1e-08   9.9975e-11         0.01 
   17600        1e-08   9.9975e-11         0.01 
   17700        1e-08   9.9975e-11         0.01 
   17800        1e-08   9.9975e-11         0.01 
   17900        1e-08   9.9975e-11         0.01 
   18000        1e-08   9.9975e-11         0.01 
   18100        1e-08   9.9975e-11         0.01 
   18200        1e-08   9.9975e-11         0.01 
   18300        1e-08   9.9975e-11         0.01 
   18400        1e-08   9.9975e-11         0.01 
   18500        1e-08   9.9975e-11         0.01 
   18600        1e-08   9.9975e-11         0.01 
   18700        1e-08   9.9975e-11         0.01 
   18800        1e-08   9.9975e-11         0.01 
   18900        1e-08   9.9975e-11         0.01 
   19000        1e-08   9.9975e-11         0.01 
   19100        1e-08   9.9975e-11         0.01 
   19200        1e-08   9.9975e-11         0.01 
   19300        1e-08   9.9975e-11         0.01 
   19400        1e-08   9.9975e-11         0.01 
   19500        1e-08   9.9975e-11         0.01 
   19600        1e-08   9.9975e-11         0.01 
   19700        1e-08   9.9975e-11         0.01 
   19800        1e-08   9.9975e-11         0.01 
   19900        1e-08   9.9975e-11         0.01 
   20000        1e-08   9.9975e-11         0.01 
Loop time of 0.488184 on 4 procs for 20000 steps with 4000 atoms

Performance: 17698237.179 tau/day, 40968.142 timesteps/s
91.1% CPU use with 4 MPI tasks x 1 OpenMP threads

MPI task timing breakdown:
Section |  min time  |  avg time  |  max time  |%varavg| %total
---------------------------------------------------------------
Pair    | 0.046511   | 0.047113   | 0.047972   |   0.2 |  9.65
Neigh   | 0          | 0          | 0          |   0.0 |  0.00
Comm    | 0.13155    | 0.14454    | 0.15403    |   2.5 | 29.61
Output  | 0.0033839  | 0.0074776  | 0.019737   |   8.2 |  1.53
Modify  | 0.14704    | 0.15274    | 0.15856    |   1.1 | 31.29
Other   |            | 0.1363     |            |       | 27.92

Nlocal:    1000 ave 1000 max 1000 min
Histogram: 4 0 0 0 0 0 0 0 0 0
Nghost:    271 ave 271 max 271 min
Histogram: 4 0 0 0 0 0 0 0 0 0
Neighs:    0 ave 0 max 0 min
Histogram: 4 0 0 0 0 0 0 0 0 0

Total # of neighbors = 0
Ave neighs/atom = 0
Neighbor list builds = 0
Dangerous builds = 0

clear
OMP_NUM_THREADS environment is not set. Defaulting to 1 thread. (src/comm.cpp:93)
  using 1 OpenMP thread(s) per MPI task
next rho
jump SELF rloop

variable rho index 0.001 0.005 0.01 0.05
variable T index 1e-8 1 2.5 5 10

units lj
dimension 3
boundary p p p
atom_style atomic

lattice fcc ${rho}
lattice fcc 0.05
Lattice spacing in x,y,z = 4.30887 4.30887 4.30887
region simbox block 0 10 0 10 0 10
create_box 1 simbox
Created orthogonal box = (0 0 0) to (43.0887 43.0887 43.0887)
  1 by 2 by 2 MPI processor grid
create_atoms 1 box
Created 4000 atoms
  create_atoms CPU = 0.000189066 secs

mass 1 1.0
velocity all create ${T} 87287 dist uniform
velocity all create 1e-8 87287 dist uniform

pair_style lj/cut 3.0
pair_coeff 1 1 1.0 1.0 3.0

fix f all nve

# A log file for each T
log log.T${T} append
log log.T1e-8 append

# dump 1 all custom 100 dump.PofT_${T} id type c_Ep c_Ek
thermo 100
thermo_style custom step temp press density
run 20000
Neighbor list info ...
  update every 1 steps, delay 10 steps, check yes
  max neighbors/atom: 2000, page size: 100000
  master list distance cutoff = 3.3
  ghost atom cutoff = 3.3
  binsize = 1.65, bins = 27 27 27
  1 neighbor lists, perpetual/occasional/extra = 1 0 0
  (1) pair lj/cut, perpetual
      attributes: half, newton on
      pair build: half/bin/atomonly/newton
      stencil: half/bin/3d/newton
      bin: standard
Per MPI rank memory allocation (min/avg/max) = 3.131 | 3.131 | 3.131 Mbytes
Step Temp Press Density 
       0        1e-08  4.99875e-10         0.05 
     100        1e-08  4.99875e-10         0.05 
     200        1e-08  4.99875e-10         0.05 
     300        1e-08  4.99875e-10         0.05 
     400        1e-08  4.99875e-10         0.05 
     500        1e-08  4.99875e-10         0.05 
     600        1e-08  4.99875e-10         0.05 
     700        1e-08  4.99875e-10         0.05 
     800        1e-08  4.99875e-10         0.05 
     900        1e-08  4.99875e-10         0.05 
    1000        1e-08  4.99875e-10         0.05 
    1100        1e-08  4.99875e-10         0.05 
    1200        1e-08  4.99875e-10         0.05 
    1300        1e-08  4.99875e-10         0.05 
    1400        1e-08  4.99875e-10         0.05 
    1500        1e-08  4.99875e-10         0.05 
    1600        1e-08  4.99875e-10         0.05 
    1700        1e-08  4.99875e-10         0.05 
    1800        1e-08  4.99875e-10         0.05 
    1900        1e-08  4.99875e-10         0.05 
    2000        1e-08  4.99875e-10         0.05 
    2100        1e-08  4.99875e-10         0.05 
    2200        1e-08  4.99875e-10         0.05 
    2300        1e-08  4.99875e-10         0.05 
    2400        1e-08  4.99875e-10         0.05 
    2500        1e-08  4.99875e-10         0.05 
    2600        1e-08  4.99875e-10         0.05 
    2700        1e-08  4.99875e-10         0.05 
    2800        1e-08  4.99875e-10         0.05 
    2900        1e-08  4.99875e-10         0.05 
    3000        1e-08  4.99875e-10         0.05 
    3100        1e-08  4.99875e-10         0.05 
    3200        1e-08  4.99875e-10         0.05 
    3300        1e-08  4.99875e-10         0.05 
    3400        1e-08  4.99875e-10         0.05 
    3500        1e-08  4.99875e-10         0.05 
    3600        1e-08  4.99875e-10         0.05 
    3700        1e-08  4.99875e-10         0.05 
    3800        1e-08  4.99875e-10         0.05 
    3900        1e-08  4.99875e-10         0.05 
    4000        1e-08  4.99875e-10         0.05 
    4100        1e-08  4.99875e-10         0.05 
    4200        1e-08  4.99875e-10         0.05 
    4300        1e-08  4.99875e-10         0.05 
    4400        1e-08  4.99875e-10         0.05 
    4500        1e-08  4.99875e-10         0.05 
    4600        1e-08  4.99875e-10         0.05 
    4700        1e-08  4.99875e-10         0.05 
    4800        1e-08  4.99875e-10         0.05 
    4900        1e-08  4.99875e-10         0.05 
    5000        1e-08  4.99875e-10         0.05 
    5100        1e-08  4.99875e-10         0.05 
    5200        1e-08  4.99875e-10         0.05 
    5300        1e-08  4.99875e-10         0.05 
    5400        1e-08  4.99875e-10         0.05 
    5500        1e-08  4.99875e-10         0.05 
    5600        1e-08  4.99875e-10         0.05 
    5700        1e-08  4.99875e-10         0.05 
    5800        1e-08  4.99875e-10         0.05 
    5900        1e-08  4.99875e-10         0.05 
    6000        1e-08  4.99875e-10         0.05 
    6100        1e-08  4.99875e-10         0.05 
    6200        1e-08  4.99875e-10         0.05 
    6300        1e-08  4.99875e-10         0.05 
    6400        1e-08  4.99875e-10         0.05 
    6500        1e-08  4.99875e-10         0.05 
    6600        1e-08  4.99875e-10         0.05 
    6700        1e-08  4.99875e-10         0.05 
    6800        1e-08  4.99875e-10         0.05 
    6900        1e-08  4.99875e-10         0.05 
    7000        1e-08  4.99875e-10         0.05 
    7100        1e-08  4.99875e-10         0.05 
    7200        1e-08  4.99875e-10         0.05 
    7300        1e-08  4.99875e-10         0.05 
    7400        1e-08  4.99875e-10         0.05 
    7500        1e-08  4.99875e-10         0.05 
    7600        1e-08  4.99875e-10         0.05 
    7700        1e-08  4.99875e-10         0.05 
    7800        1e-08  4.99875e-10         0.05 
    7900        1e-08  4.99875e-10         0.05 
    8000        1e-08  4.99875e-10         0.05 
    8100        1e-08  4.99875e-10         0.05 
    8200        1e-08  4.99875e-10         0.05 
    8300        1e-08  4.99875e-10         0.05 
    8400        1e-08  4.99875e-10         0.05 
    8500        1e-08  4.99875e-10         0.05 
    8600        1e-08  4.99875e-10         0.05 
    8700        1e-08  4.99875e-10         0.05 
    8800        1e-08  4.99875e-10         0.05 
    8900        1e-08  4.99875e-10         0.05 
    9000        1e-08  4.99875e-10         0.05 
    9100        1e-08  4.99875e-10         0.05 
    9200        1e-08  4.99875e-10         0.05 
    9300        1e-08  4.99875e-10         0.05 
    9400        1e-08  4.99875e-10         0.05 
    9500        1e-08  4.99875e-10         0.05 
    9600        1e-08  4.99875e-10         0.05 
    9700        1e-08  4.99875e-10         0.05 
    9800        1e-08  4.99875e-10         0.05 
    9900        1e-08  4.99875e-10         0.05 
   10000        1e-08  4.99875e-10         0.05 
   10100        1e-08  4.99875e-10         0.05 
   10200        1e-08  4.99875e-10         0.05 
   10300        1e-08  4.99875e-10         0.05 
   10400        1e-08  4.99875e-10         0.05 
   10500        1e-08  4.99875e-10         0.05 
   10600        1e-08  4.99875e-10         0.05 
   10700        1e-08  4.99875e-10         0.05 
   10800        1e-08  4.99875e-10         0.05 
   10900        1e-08  4.99875e-10         0.05 
   11000        1e-08  4.99875e-10         0.05 
   11100        1e-08  4.99875e-10         0.05 
   11200        1e-08  4.99875e-10         0.05 
   11300        1e-08  4.99875e-10         0.05 
   11400        1e-08  4.99875e-10         0.05 
   11500        1e-08  4.99875e-10         0.05 
   11600        1e-08  4.99875e-10         0.05 
   11700        1e-08  4.99875e-10         0.05 
   11800        1e-08  4.99875e-10         0.05 
   11900        1e-08  4.99875e-10         0.05 
   12000        1e-08  4.99875e-10         0.05 
   12100        1e-08  4.99875e-10         0.05 
   12200        1e-08  4.99875e-10         0.05 
   12300        1e-08  4.99875e-10         0.05 
   12400        1e-08  4.99875e-10         0.05 
   12500        1e-08  4.99875e-10         0.05 
   12600        1e-08  4.99875e-10         0.05 
   12700        1e-08  4.99875e-10         0.05 
   12800        1e-08  4.99875e-10         0.05 
   12900        1e-08  4.99875e-10         0.05 
   13000        1e-08  4.99875e-10         0.05 
   13100        1e-08  4.99875e-10         0.05 
   13200        1e-08  4.99875e-10         0.05 
   13300        1e-08  4.99875e-10         0.05 
   13400        1e-08  4.99875e-10         0.05 
   13500        1e-08  4.99875e-10         0.05 
   13600        1e-08  4.99875e-10         0.05 
   13700        1e-08  4.99875e-10         0.05 
   13800        1e-08  4.99875e-10         0.05 
   13900        1e-08  4.99875e-10         0.05 
   14000        1e-08  4.99875e-10         0.05 
   14100        1e-08  4.99875e-10         0.05 
   14200        1e-08  4.99875e-10         0.05 
   14300        1e-08  4.99875e-10         0.05 
   14400        1e-08  4.99875e-10         0.05 
   14500        1e-08  4.99875e-10         0.05 
   14600        1e-08  4.99875e-10         0.05 
   14700        1e-08  4.99875e-10         0.05 
   14800        1e-08  4.99875e-10         0.05 
   14900        1e-08  4.99875e-10         0.05 
   15000        1e-08  4.99875e-10         0.05 
   15100        1e-08  4.99875e-10         0.05 
   15200        1e-08  4.99875e-10         0.05 
   15300        1e-08  4.99875e-10         0.05 
   15400        1e-08  4.99875e-10         0.05 
   15500        1e-08  4.99875e-10         0.05 
   15600        1e-08  4.99875e-10         0.05 
   15700        1e-08  4.99875e-10         0.05 
   15800        1e-08  4.99875e-10         0.05 
   15900        1e-08  4.99875e-10         0.05 
   16000        1e-08  4.99875e-10         0.05 
   16100        1e-08  4.99875e-10         0.05 
   16200        1e-08  4.99875e-10         0.05 
   16300        1e-08  4.99875e-10         0.05 
   16400        1e-08  4.99875e-10         0.05 
   16500        1e-08  4.99875e-10         0.05 
   16600        1e-08  4.99875e-10         0.05 
   16700        1e-08  4.99875e-10         0.05 
   16800        1e-08  4.99875e-10         0.05 
   16900        1e-08  4.99875e-10         0.05 
   17000        1e-08  4.99875e-10         0.05 
   17100        1e-08  4.99875e-10         0.05 
   17200        1e-08  4.99875e-10         0.05 
   17300        1e-08  4.99875e-10         0.05 
   17400        1e-08  4.99875e-10         0.05 
   17500        1e-08  4.99875e-10         0.05 
   17600        1e-08  4.99875e-10         0.05 
   17700        1e-08  4.99875e-10         0.05 
   17800        1e-08  4.99875e-10         0.05 
   17900        1e-08  4.99875e-10         0.05 
   18000        1e-08  4.99875e-10         0.05 
   18100        1e-08  4.99875e-10         0.05 
   18200        1e-08  4.99875e-10         0.05 
   18300        1e-08  4.99875e-10         0.05 
   18400        1e-08  4.99875e-10         0.05 
   18500        1e-08  4.99875e-10         0.05 
   18600        1e-08  4.99875e-10         0.05 
   18700        1e-08  4.99875e-10         0.05 
   18800        1e-08  4.99875e-10         0.05 
   18900        1e-08  4.99875e-10         0.05 
   19000        1e-08  4.99875e-10         0.05 
   19100        1e-08  4.99875e-10         0.05 
   19200        1e-08  4.99875e-10         0.05 
   19300        1e-08  4.99875e-10         0.05 
   19400        1e-08  4.99875e-10         0.05 
   19500        1e-08  4.99875e-10         0.05 
   19600        1e-08  4.99875e-10         0.05 
   19700        1e-08  4.99875e-10         0.05 
   19800        1e-08  4.99875e-10         0.05 
   19900        1e-08  4.99875e-10         0.05 
   20000        1e-08  4.99875e-10         0.05 
Loop time of 1.21054 on 4 procs for 20000 steps with 4000 atoms

Performance: 7137329.970 tau/day, 16521.597 timesteps/s
89.9% CPU use with 4 MPI tasks x 1 OpenMP threads

MPI task timing breakdown:
Section |  min time  |  avg time  |  max time  |%varavg| %total
---------------------------------------------------------------
Pair    | 0.35184    | 0.36221    | 0.37496    |   1.5 | 29.92
Neigh   | 0          | 0          | 0          |   0.0 |  0.00
Comm    | 0.45107    | 0.47543    | 0.49343    |   2.5 | 39.27
Output  | 0.0051723  | 0.010522   | 0.025928   |   8.7 |  0.87
Modify  | 0.15316    | 0.15541    | 0.15988    |   0.7 | 12.84
Other   |            | 0.207      |            |       | 17.10

Nlocal:    1000 ave 1000 max 1000 min
Histogram: 4 0 0 0 0 0 0 0 0 0
Nghost:    943 ave 943 max 943 min
Histogram: 4 0 0 0 0 0 0 0 0 0
Neighs:    6000 ave 6000 max 6000 min
Histogram: 4 0 0 0 0 0 0 0 0 0

Total # of neighbors = 24000
Ave neighs/atom = 6
Neighbor list builds = 0
Dangerous builds = 0

clear
OMP_NUM_THREADS environment is not set. Defaulting to 1 thread. (src/comm.cpp:93)
  using 1 OpenMP thread(s) per MPI task
next rho
jump SELF rloop

clear
OMP_NUM_THREADS environment is not set. Defaulting to 1 thread. (src/comm.cpp:93)
  using 1 OpenMP thread(s) per MPI task
next T
jump SELF tloop
label rloop

variable rho index 0.001 0.005 0.01 0.05
variable T index 1e-8 1 2.5 5 10

units lj
dimension 3
boundary p p p
atom_style atomic

lattice fcc ${rho}
lattice fcc 0.001
Lattice spacing in x,y,z = 15.874 15.874 15.874
region simbox block 0 10 0 10 0 10
create_box 1 simbox
Created orthogonal box = (0 0 0) to (158.74 158.74 158.74)
  2 by 1 by 2 MPI processor grid
create_atoms 1 box
Created 4000 atoms
  create_atoms CPU = 0.000302076 secs

mass 1 1.0
velocity all create ${T} 87287 dist uniform
velocity all create 1 87287 dist uniform

pair_style lj/cut 3.0
pair_coeff 1 1 1.0 1.0 3.0

fix f all nve

# A log file for each T
log log.T${T} append
log log.T1 append
