
# dump 1 all custom 100 dump.PofT_${T} id type c_Ep c_Ek
thermo 100
thermo_style custom step temp press density
run 20000
Neighbor list info ...
  update every 1 steps, delay 10 steps, check yes
  max neighbors/atom: 2000, page size: 100000
  master list distance cutoff = 3.3
  ghost atom cutoff = 3.3
  binsize = 1.65, bins = 97 97 97
  1 neighbor lists, perpetual/occasional/extra = 1 0 0
  (1) pair lj/cut, perpetual
      attributes: half, newton on
      pair build: half/bin/atomonly/newton
      stencil: half/bin/3d/newton
      bin: standard
Per MPI rank memory allocation (min/avg/max) = 4.201 | 4.201 | 4.201 Mbytes
Step Temp Press Density 
       0           10    0.0099975        0.001 
     100           10    0.0099975        0.001 
     200    9.9937673  0.010057349        0.001 
     300    10.000912   0.01001616        0.001 
     400    10.001849   0.01000983        0.001 
     500    9.9954842  0.010052596        0.001 
     600     10.00246  0.010003281        0.001 
     700    10.003737 0.0099960326        0.001 
     800    9.9990877  0.010032345        0.001 
     900    9.9992812  0.010027286        0.001 
    1000    10.000909  0.010012323        0.001 
    1100    10.001354  0.010014757        0.001 
    1200    10.000087  0.010018805        0.001 
    1300    10.002906  0.010002036        0.001 
    1400     10.00299  0.010002635        0.001 
    1500    10.002298  0.010008037        0.001 
    1600    10.002852  0.010001014        0.001 
    1700     10.00277  0.010009985        0.001 
    1800    10.003319  0.010002479        0.001 
    1900    10.003282 0.0099965892        0.001 
    2000    10.001538  0.010013964        0.001 
    2100    10.003823 0.0099992056        0.001 
    2200    10.003057  0.010002304        0.001 
    2300    9.9992124  0.010031959        0.001 
    2400     10.00249  0.010007064        0.001 
    2500    10.002002  0.010007407        0.001 
    2600    10.002146  0.010006324        0.001 
    2700    9.9985149  0.010044918        0.001 
    2800    10.000565  0.010023537        0.001 
    2900    10.002584  0.010008511        0.001 
    3000    10.001098  0.010011529        0.001 
    3100    10.001323  0.010005264        0.001 
    3200     10.00171  0.010010777        0.001 
    3300    10.001689   0.01001115        0.001 
    3400    10.000658  0.010019505        0.001 
    3500    10.003229 0.0099953845        0.001 
    3600    10.002686  0.010002612        0.001 
    3700     10.00364  0.009998644        0.001 
    3800    10.002459  0.010008441        0.001 
    3900    10.003605  0.010000032        0.001 
    4000    10.002138  0.010006555        0.001 
    4100    10.001128  0.010005294        0.001 
    4200    10.000966  0.010017107        0.001 
    4300    10.003558  0.010006427        0.001 
    4400    10.001323  0.010012188        0.001 
    4500    10.002718   0.01000533        0.001 
    4600    10.002625  0.010009484        0.001 
    4700    10.002597   0.01000108        0.001 
    4800    10.001807  0.010001742        0.001 
    4900    10.003568 0.0099994096        0.001 
    5000    9.9995853  0.010027594        0.001 
    5100    10.002061  0.010020068        0.001 
    5200    10.001267  0.010013608        0.001 
    5300      10.0034  0.010000245        0.001 
    5400    9.9996567  0.010025352        0.001 
    5500    10.000175  0.010024953        0.001 
    5600    10.003555  0.010002888        0.001 
    5700    10.001238   0.01000879        0.001 
    5800    10.002338 0.0099985096        0.001 
    5900    10.003417 0.0099987001        0.001 
    6000    10.001036   0.01001666        0.001 
    6100    10.000869    0.0100162        0.001 
    6200    10.002348 0.0099975602        0.001 
    6300    10.003516  0.010009714        0.001 
    6400    10.001889   0.01001218        0.001 
    6500    10.002779  0.010005989        0.001 
    6600    10.000632  0.010015493        0.001 
    6700    10.002673 0.0099975523        0.001 
    6800    10.003065  0.010001486        0.001 
    6900     10.00079  0.010015961        0.001 
    7000    10.002713 0.0099958821        0.001 
    7100    9.9997886  0.010029053        0.001 
    7200    10.000147  0.010013708        0.001 
    7300    10.001926  0.010000569        0.001 
    7400    10.002928 0.0099992865        0.001 
    7500    10.001297  0.010015301        0.001 
    7600    10.001554  0.010009908        0.001 
    7700    10.003043  0.009992899        0.001 
    7800    10.001318  0.010012359        0.001 
    7900    9.9989704  0.010024727        0.001 
    8000    10.003621 0.0099966774        0.001 
    8100    10.001688  0.010008202        0.001 
    8200    10.001466  0.010012559        0.001 
    8300    10.000359  0.010013805        0.001 
    8400    10.001717  0.010021468        0.001 
    8500    10.003408  0.010000947        0.001 
    8600    10.002232 0.0099986735        0.001 
    8700     10.00146   0.01001244        0.001 
    8800    10.001656   0.01000933        0.001 
    8900    10.003179 0.0099947852        0.001 
    9000    10.001021  0.010016865        0.001 
    9100    10.002403  0.010007647        0.001 
    9200    10.000345   0.01002997        0.001 
    9300    10.002115  0.010009736        0.001 
    9400    10.001941  0.010002119        0.001 
    9500    10.003727 0.0099993557        0.001 
    9600    10.003481  0.010003129        0.001 
    9700    10.002204  0.010013158        0.001 
    9800    10.001934  0.010009965        0.001 
    9900    10.003649 0.0099982608        0.001 
   10000    9.9996224  0.010018954        0.001 
   10100     10.00185  0.010001186        0.001 
   10200    10.001024  0.010013322        0.001 
   10300    10.002526  0.010003794        0.001 
   10400    10.003745  0.010004309        0.001 
   10500    10.003788  0.009996937        0.001 
   10600    10.000769  0.010030296        0.001 
   10700    10.001615  0.010009238        0.001 
   10800    10.001934  0.010017114        0.001 
   10900     10.00295 0.0099998293        0.001 
   11000    10.002959  0.010005757        0.001 
   11100    10.003459 0.0099971969        0.001 
   11200    10.002075 0.0099993736        0.001 
   11300    10.002625  0.009998098        0.001 
   11400     10.00441 0.0099953095        0.001 
   11500    9.9992327  0.010029146        0.001 
   11600    9.9980626  0.010029949        0.001 
   11700    9.9971742  0.010035863        0.001 
   11800    10.001606  0.010015031        0.001 
   11900    10.003454  0.010001456        0.001 
   12000    10.001856  0.010011067        0.001 
   12100    10.001481  0.010011054        0.001 
   12200     10.00218 0.0099991711        0.001 
   12300    10.002338  0.010002395        0.001 
   12400    10.003579 0.0099937967        0.001 
   12500    10.000663  0.010013907        0.001 
   12600    9.9997134  0.010026448        0.001 
   12700    10.000069  0.010026361        0.001 
   12800    10.001998  0.010013225        0.001 
   12900    10.003184  0.009995662        0.001 
   13000    10.001303  0.010004536        0.001 
   13100    10.000504   0.01002671        0.001 
   13200    10.002765 0.0099958814        0.001 
   13300    9.9980114  0.010039524        0.001 
   13400    9.9996378  0.010021464        0.001 
   13500    10.004081  0.010000029        0.001 
   13600    10.002064  0.010005406        0.001 
   13700    10.001136  0.010011297        0.001 
   13800     10.00042  0.010018501        0.001 
   13900    10.000685  0.010020043        0.001 
   14000    10.000832  0.010018466        0.001 
   14100    10.000884  0.010018063        0.001 
   14200    10.002256   0.01000636        0.001 
   14300    10.001916 0.0099992152        0.001 
   14400    10.002837 0.0099999013        0.001 
   14500    10.002361  0.010001015        0.001 
   14600    10.001574 0.0099993334        0.001 
   14700     10.00206  0.010001983        0.001 
   14800    10.003713  0.010000679        0.001 
   14900    10.002843   0.01000082        0.001 
   15000    10.001881   0.01001125        0.001 
   15100     9.998933  0.010032453        0.001 
   15200    10.000867  0.010012657        0.001 
   15300    10.002749  0.010001204        0.001 
   15400    9.9994112  0.010033587        0.001 
   15500    10.001631  0.010014646        0.001 
   15600    10.000481  0.010008297        0.001 
   15700     10.00335 0.0099935264        0.001 
   15800     9.998458  0.010027342        0.001 
   15900    10.001943  0.010001737        0.001 
   16000    10.002585  0.010010494        0.001 
   16100    10.002504  0.010000402        0.001 
   16200    10.002439 0.0099974665        0.001 
   16300    10.001943   0.01000111        0.001 
   16400    10.001721   0.01001165        0.001 
   16500    10.001585  0.010005643        0.001 
   16600    9.9987837  0.010024917        0.001 
   16700    10.002764  0.010001126        0.001 
   16800    10.001399  0.010005845        0.001 
   16900    10.002756 0.0099972374        0.001 
   17000    10.001696  0.010003298        0.001 
   17100    10.003298  0.010001423        0.001 
   17200    10.001272  0.010017441        0.001 
   17300    9.9981597  0.010026673        0.001 
   17400    10.002215  0.010006133        0.001 
   17500    9.9984667    0.0100331        0.001 
   17600    10.002717 0.0099992296        0.001 
   17700    10.002953 0.0099950358        0.001 
   17800    9.9978924  0.010037168        0.001 
   17900    10.003181 0.0099950415        0.001 
   18000    9.9986555  0.010036302        0.001 
   18100    10.002461  0.010003273        0.001 
   18200    10.004038 0.0099978379        0.001 
   18300     10.00135  0.010001527        0.001 
   18400    10.002808  0.010001514        0.001 
   18500    10.003879  0.010004784        0.001 
   18600    10.002445 0.0099927556        0.001 
   18700    10.000231  0.010017895        0.001 
   18800    10.001887  0.010004503        0.001 
   18900    9.9979175  0.010036924        0.001 
   19000    10.001993  0.010006583        0.001 
   19100    10.003042  0.010004605        0.001 
   19200    10.002902  0.010001194        0.001 
   19300    9.9948196  0.010056861        0.001 
   19400    10.002991 0.0099932152        0.001 
   19500    10.002208  0.010007072        0.001 
   19600    9.9993566  0.010021479        0.001 
   19700    10.002468  0.010008851        0.001 
   19800    10.002707   0.01000461        0.001 
   19900    10.002473  0.010007774        0.001 
   20000    10.003084 0.0099962284        0.001 
Loop time of 1.70511 on 4 procs for 20000 steps with 4000 atoms

Performance: 5067119.072 tau/day, 11729.442 timesteps/s
92.8% CPU use with 4 MPI tasks x 1 OpenMP threads

MPI task timing breakdown:
Section |  min time  |  avg time  |  max time  |%varavg| %total
---------------------------------------------------------------
Pair    | 0.085762   | 0.09027    | 0.097454   |   1.5 |  5.29
Neigh   | 0.87904    | 0.91192    | 0.97421    |   3.9 | 53.48
Comm    | 0.35307    | 0.46089    | 0.51797    |   9.4 | 27.03
Output  | 0.0075521  | 0.015821   | 0.036081   |   9.3 |  0.93
Modify  | 0.16206    | 0.17302    | 0.18878    |   2.4 | 10.15
Other   |            | 0.05319    |            |       |  3.12

Nlocal:    1000 ave 1021 max 958 min
Histogram: 1 0 0 0 0 0 0 1 0 2
Nghost:    229.75 ave 242 max 214 min
Histogram: 1 0 0 0 0 0 2 0 0 1
Neighs:    77.25 ave 87 max 61 min
Histogram: 1 0 0 0 0 0 0 2 0 1

Total # of neighbors = 309
Ave neighs/atom = 0.07725
Neighbor list builds = 2000
Dangerous builds = 2000

clear
OMP_NUM_THREADS environment is not set. Defaulting to 1 thread. (src/comm.cpp:93)
  using 1 OpenMP thread(s) per MPI task
next rho
jump SELF rloop

variable rho index 0.001 0.005 0.01 0.05
variable T index 1e-8 1 2.5 5 10

units lj
dimension 3
boundary p p p
atom_style atomic

lattice fcc ${rho}
lattice fcc 0.005
Lattice spacing in x,y,z = 9.28318 9.28318 9.28318
region simbox block 0 10 0 10 0 10
create_box 1 simbox
Created orthogonal box = (0 0 0) to (92.8318 92.8318 92.8318)
  1 by 2 by 2 MPI processor grid
create_atoms 1 box
Created 4000 atoms
  create_atoms CPU = 0.000167131 secs

mass 1 1.0
velocity all create ${T} 87287 dist uniform
velocity all create 10 87287 dist uniform

pair_style lj/cut 3.0
pair_coeff 1 1 1.0 1.0 3.0

fix f all nve

# A log file for each T
log log.T${T} append
log log.T10 append

# dump 1 all custom 100 dump.PofT_${T} id type c_Ep c_Ek
thermo 100
thermo_style custom step temp press density
run 20000
Neighbor list info ...
  update every 1 steps, delay 10 steps, check yes
  max neighbors/atom: 2000, page size: 100000
  master list distance cutoff = 3.3
  ghost atom cutoff = 3.3
  binsize = 1.65, bins = 57 57 57
  1 neighbor lists, perpetual/occasional/extra = 1 0 0
  (1) pair lj/cut, perpetual
      attributes: half, newton on
      pair build: half/bin/atomonly/newton
      stencil: half/bin/3d/newton
      bin: standard
Per MPI rank memory allocation (min/avg/max) = 3.339 | 3.339 | 3.339 Mbytes
Step Temp Press Density 
       0           10    0.0499875        0.005 
     100    10.001759  0.050190876        0.005 
     200    10.010241   0.05031076        0.005 
     300    10.005203  0.050432755        0.005 
     400    10.010378  0.050280831        0.005 
     500    10.010976  0.050251861        0.005 
     600    10.009641  0.050238843        0.005 
     700    10.009987  0.050253626        0.005 
     800     10.00897  0.050277482        0.005 
     900    10.012458  0.050215128        0.005 
    1000    10.008655   0.05028708        0.005 
    1100    10.005467  0.050414223        0.005 
    1200    10.016671   0.04999025        0.005 
    1300    10.009561  0.050360594        0.005 
    1400    10.009759  0.050250016        0.005 
    1500    10.008979  0.050410174        0.005 
    1600    10.011923  0.050280775        0.005 
    1700    10.006092  0.050403021        0.005 
    1800     10.01202  0.050235819        0.005 
    1900     10.00734  0.050357736        0.005 
    2000    10.012536  0.050269864        0.005 
    2100    10.012347  0.050113551        0.005 
    2200    10.011325  0.050271735        0.005 
    2300    10.007644  0.050298675        0.005 
    2400    10.012675  0.050182464        0.005 
    2500     10.00789  0.050302911        0.005 
    2600    10.009657  0.050294543        0.005 
    2700    10.008857  0.050284125        0.005 
    2800    10.010873  0.050261969        0.005 
    2900    10.010946  0.050156537        0.005 
    3000     10.01306  0.050166469        0.005 
    3100    10.003822  0.050472833        0.005 
    3200     10.00767  0.050408516        0.005 
    3300    10.010933  0.050153979        0.005 
    3400    10.005063  0.050523362        0.005 
    3500    10.012064  0.050274497        0.005 
    3600    10.010732  0.050309027        0.005 
    3700    10.007315   0.05035767        0.005 
    3800    10.011929  0.050294786        0.005 
    3900    10.012382  0.050201701        0.005 
    4000    10.010723  0.050333682        0.005 
    4100    10.005371   0.05032292        0.005 
    4200    10.005544  0.050449677        0.005 
    4300     10.01319  0.050327433        0.005 
    4400    10.011162  0.050279428        0.005 
    4500    10.007035  0.050397418        0.005 
    4600    10.013673  0.050118814        0.005 
    4700    10.006151   0.05044674        0.005 
    4800    10.010888  0.050287193        0.005 
    4900    10.007349  0.050294122        0.005 
    5000    10.009126  0.050363015        0.005 
    5100    10.002949  0.050495978        0.005 
    5200     10.00437  0.050471063        0.005 
    5300    10.011166  0.050242845        0.005 
    5400    10.007821  0.050332248        0.005 
    5500    10.008121  0.050372204        0.005 
    5600    10.009857    0.0502782        0.005 
    5700    10.012317  0.050186529        0.005 
    5800    10.006094  0.050455709        0.005 
    5900    10.012653  0.050196849        0.005 
    6000    10.011846  0.050202754        0.005 
    6100    10.009145  0.050286625        0.005 
    6200    10.004225  0.050396226        0.005 
    6300    10.008601  0.050402138        0.005 
    6400    10.005982  0.050387814        0.005 
    6500    10.007299  0.050417586        0.005 
    6600    10.004395   0.05043769        0.005 
    6700     10.00743  0.050365101        0.005 
    6800    10.010068  0.050171664        0.005 
    6900    10.014003   0.05016473        0.005 
    7000    10.009831  0.050332658        0.005 
    7100    10.009192  0.050285239        0.005 
    7200    10.010403  0.050303895        0.005 
    7300    10.006104  0.050417899        0.005 
    7400    10.014374  0.050094961        0.005 
    7500    10.010295  0.050230619        0.005 
    7600    10.004711  0.050489926        0.005 
    7700    10.011793  0.050214517        0.005 
    7800     10.01042  0.050206746        0.005 
    7900    10.007007  0.050253925        0.005 
    8000    10.010119  0.050166298        0.005 
    8100    10.006139  0.050357733        0.005 
    8200     10.01366  0.050135484        0.005 
    8300    10.003172  0.050443427        0.005 
    8400    10.012074  0.050198112        0.005 
    8500    10.008969  0.050307619        0.005 
    8600    10.006778  0.050370888        0.005 
    8700    10.015098  0.050081946        0.005 
    8800    10.004079  0.050507951        0.005 
    8900     10.01197  0.050236422        0.005 
    9000    10.009916   0.05022736        0.005 
    9100    10.011595  0.050205196        0.005 
    9200    10.010706  0.050125667        0.005 
    9300    10.014311  0.050031634        0.005 
    9400    10.012082  0.050226627        0.005 
    9500    10.011058  0.050095472        0.005 
    9600    10.003966  0.050527722        0.005 
    9700    10.008098   0.05031399        0.005 
    9800      10.0075  0.050301406        0.005 
    9900    10.008947  0.050220811        0.005 
   10000    10.004515  0.050614252        0.005 
   10100    10.008358  0.050248977        0.005 
   10200    10.001003  0.050546681        0.005 
   10300    10.006347  0.050449095        0.005 
   10400    10.007038  0.050325274        0.005 
   10500    10.003414  0.050431384        0.005 
   10600    9.9954391   0.05067781        0.005 
   10700    10.009749   0.05032083        0.005 
   10800    9.9982154  0.050692306        0.005 
   10900    10.014036  0.050266127        0.005 
   11000    10.013013  0.050054916        0.005 
   11100    10.005972  0.050331734        0.005 
   11200    10.007061  0.050395786        0.005 
   11300    10.005003  0.050518142        0.005 
   11400    10.009831  0.050157479        0.005 
   11500    10.006227  0.050432959        0.005 
   11600    10.012851  0.050199602        0.005 
   11700    10.009034  0.050313661        0.005 
   11800    10.011413  0.050255231        0.005 
   11900    10.012435  0.050120913        0.005 
   12000    10.012528  0.050090061        0.005 
   12100    9.9959635   0.05076235        0.005 
   12200    9.9947498  0.050779914        0.005 
   12300    10.002566  0.050482404        0.005 
   12400    10.007002  0.050421201        0.005 
   12500    10.009913  0.050150372        0.005 
   12600    10.007513  0.050342298        0.005 
   12700    10.009248  0.050293625        0.005 
   12800    10.010211  0.050192276        0.005 
   12900    10.011152  0.050170662        0.005 
   13000      10.0087  0.050238987        0.005 
   13100    10.009083  0.050135662        0.005 
   13200    10.009361  0.050349497        0.005 
   13300     10.00917  0.050383079        0.005 
   13400     10.01055  0.050185177        0.005 
   13500    10.001466  0.050587994        0.005 
   13600    10.005968  0.050296888        0.005 
   13700     10.00838  0.050260494        0.005 
   13800    10.011148  0.050179867        0.005 
   13900    10.007927  0.050209527        0.005 
   14000    10.006037  0.050330072        0.005 
   14100    10.003327  0.050409385        0.005 
   14200    10.000766   0.05058353        0.005 
   14300    10.001372  0.050482713        0.005 
   14400    10.006372  0.050273641        0.005 
   14500    10.013608  0.050081818        0.005 
   14600    10.013614  0.050023638        0.005 
   14700    10.008405  0.050300942        0.005 
   14800    9.9993944  0.050557697        0.005 
   14900    10.010796  0.050184177        0.005 
   15000     10.00645  0.050404814        0.005 
   15100    10.006042   0.05038373        0.005 
   15200    10.007802  0.050282788        0.005 
   15300    10.007577  0.050346744        0.005 
   15400    10.008214  0.050334287        0.005 
   15500    10.006431  0.050326659        0.005 
   15600     10.00491  0.050284343        0.005 
   15700    10.010312  0.050220479        0.005 
   15800    10.012339  0.050037527        0.005 
   15900    10.011295  0.050042773        0.005 
   16000    10.007055  0.050353772        0.005 
   16100    10.010206  0.050194136        0.005 
   16200    10.007425  0.050274649        0.005 
   16300    10.003583  0.050402043        0.005 
   16400    10.012945  0.050121048        0.005 
   16500    10.007945  0.050230901        0.005 
   16600    10.006317  0.050392022        0.005 
   16700    10.012459  0.050196928        0.005 
   16800    10.007555  0.050341692        0.005 
   16900     10.00755  0.050210049        0.005 
   17000    10.009062  0.050285956        0.005 
   17100    10.006068  0.050249034        0.005 
   17200    10.011371  0.050123159        0.005 
   17300    10.005972  0.050300162        0.005 
   17400    10.007431   0.05027988        0.005 
   17500    10.008588  0.050321626        0.005 
   17600    10.006848  0.050247818        0.005 
   17700    10.007165  0.050329589        0.005 
   17800    10.009597  0.050224014        0.005 
   17900    10.012104  0.050136341        0.005 
   18000    10.009376  0.050301998        0.005 
   18100    10.000576  0.050488908        0.005 
   18200     10.00772  0.050292975        0.005 
   18300    10.010265  0.050114859        0.005 
   18400    10.009493  0.050263044        0.005 
   18500    10.010352  0.050167678        0.005 
   18600    10.006267  0.050298139        0.005 
   18700    10.002393  0.050496006        0.005 
   18800    10.011692  0.050157993        0.005 
   18900    10.004033   0.05029273        0.005 
   19000    10.010668  0.050173225        0.005 
   19100    10.002205  0.050432805        0.005 
   19200    10.013207  0.050076264        0.005 
   19300    9.9968568  0.050635742        0.005 
   19400    10.004403  0.050309406        0.005 
   19500    10.007028  0.050400544        0.005 
   19600    10.006791  0.050375804        0.005 
   19700    10.005634  0.050179703        0.005 
   19800    10.010765  0.050117224        0.005 
   19900     10.00592  0.050380837        0.005 
   20000    10.007361  0.050274384        0.005 
Loop time of 1.23577 on 4 procs for 20000 steps with 4000 atoms

Performance: 6991605.511 tau/day, 16184.272 timesteps/s
93.4% CPU use with 4 MPI tasks x 1 OpenMP threads

MPI task timing breakdown:
Section |  min time  |  avg time  |  max time  |%varavg| %total
---------------------------------------------------------------
Pair    | 0.16143    | 0.17247    | 0.19249    |   2.9 | 13.96
Neigh   | 0.42597    | 0.44042    | 0.46176    |   2.1 | 35.64
Comm    | 0.33475    | 0.41045    | 0.45093    |   7.0 | 33.21
Output  | 0.0041475  | 0.011353   | 0.032432   |  11.4 |  0.92
Modify  | 0.14972    | 0.15577    | 0.16428    |   1.4 | 12.60
Other   |            | 0.0453     |            |       |  3.67

Nlocal:    1000 ave 1030 max 934 min
Histogram: 1 0 0 0 0 0 0 1 0 2
Nghost:    381 ave 430 max 360 min
Histogram: 2 1 0 0 0 0 0 0 0 1
Neighs:    378.25 ave 405 max 323 min
Histogram: 1 0 0 0 0 0 0 0 2 1

Total # of neighbors = 1513
Ave neighs/atom = 0.37825
Neighbor list builds = 2000
Dangerous builds = 2000

clear
OMP_NUM_THREADS environment is not set. Defaulting to 1 thread. (src/comm.cpp:93)
  using 1 OpenMP thread(s) per MPI task
next rho
jump SELF rloop

variable rho index 0.001 0.005 0.01 0.05
variable T index 1e-8 1 2.5 5 10

units lj
dimension 3
boundary p p p
atom_style atomic

lattice fcc ${rho}
lattice fcc 0.01
Lattice spacing in x,y,z = 7.36806 7.36806 7.36806
region simbox block 0 10 0 10 0 10
create_box 1 simbox
Created orthogonal box = (0 0 0) to (73.6806 73.6806 73.6806)
  1 by 2 by 2 MPI processor grid
create_atoms 1 box
Created 4000 atoms
  create_atoms CPU = 0.000619173 secs

mass 1 1.0
velocity all create ${T} 87287 dist uniform
velocity all create 10 87287 dist uniform

pair_style lj/cut 3.0
pair_coeff 1 1 1.0 1.0 3.0

fix f all nve

# A log file for each T
log log.T${T} append
log log.T10 append

# dump 1 all custom 100 dump.PofT_${T} id type c_Ep c_Ek
thermo 100
thermo_style custom step temp press density
run 20000
Neighbor list info ...
  update every 1 steps, delay 10 steps, check yes
  max neighbors/atom: 2000, page size: 100000
  master list distance cutoff = 3.3
  ghost atom cutoff = 3.3
  binsize = 1.65, bins = 45 45 45
  1 neighbor lists, perpetual/occasional/extra = 1 0 0
  (1) pair lj/cut, perpetual
      attributes: half, newton on
      pair build: half/bin/atomonly/newton
      stencil: half/bin/3d/newton
      bin: standard
Per MPI rank memory allocation (min/avg/max) = 3.215 | 3.215 | 3.215 Mbytes
Step Temp Press Density 
       0           10     0.099975         0.01 
     100    10.018493   0.10073067         0.01 
     200    10.016789   0.10129681         0.01 
     300    10.025968   0.10075442         0.01 
     400    10.020423   0.10113544         0.01 
     500    10.014282   0.10181445         0.01 
     600    10.009635   0.10212047         0.01 
     700    10.031719   0.10072075         0.01 
     800    10.021709   0.10101011         0.01 
     900    10.025807   0.10092059         0.01 
    1000    10.020621   0.10088311         0.01 
    1100    10.016615   0.10148386         0.01 
    1200    10.023583   0.10098591         0.01 
    1300    10.019624    0.1011995         0.01 
    1400    10.015041   0.10148347         0.01 
    1500    10.026482   0.10049684         0.01 
    1600    10.023354   0.10092469         0.01 
    1700    10.015838    0.1011835         0.01 
    1800    10.021159   0.10073282         0.01 
    1900    10.024501   0.10102648         0.01 
    2000    10.016419   0.10145161         0.01 
    2100    10.017943   0.10143061         0.01 
    2200    10.023398   0.10112268         0.01 
    2300    10.011483   0.10177425         0.01 
    2400    10.024991    0.1011452         0.01 
    2500    10.017457   0.10111427         0.01 
    2600     10.02046    0.1012574         0.01 
    2700    10.029245   0.10061179         0.01 
    2800    10.024424   0.10083854         0.01 
    2900     10.02218   0.10096778         0.01 
    3000    10.024755   0.10104005         0.01 
    3100    10.026797   0.10061049         0.01 
    3200    10.005797   0.10200199         0.01 
    3300    10.014732   0.10145136         0.01 
    3400    10.018802   0.10127409         0.01 
    3500    10.017053    0.1010145         0.01 
    3600    10.019793   0.10110801         0.01 
    3700    10.015125   0.10129906         0.01 
    3800    10.026955    0.1005414         0.01 
    3900    10.003316   0.10239195         0.01 
    4000    10.018209    0.1009921         0.01 
    4100    10.021049   0.10112206         0.01 
    4200    10.005487   0.10226839         0.01 
    4300    10.018654    0.1010457         0.01 
    4400    10.022399   0.10059482         0.01 
    4500    10.016337    0.1016892         0.01 
    4600      10.0261    0.1005301         0.01 
    4700    10.016266   0.10120684         0.01 
    4800    10.021694   0.10101287         0.01 
    4900    10.017239   0.10124516         0.01 
    5000     10.01728   0.10119693         0.01 
    5100    10.019577   0.10117358         0.01 
    5200    10.027964   0.10028593         0.01 
    5300    10.013339   0.10165552         0.01 
    5400     10.01877   0.10097814         0.01 
    5500    10.011522   0.10175158         0.01 
    5600    10.022174   0.10114656         0.01 
    5700    10.009166   0.10164559         0.01 
    5800    10.023757   0.10091595         0.01 
    5900    10.016883   0.10154509         0.01 
    6000    10.016931   0.10125648         0.01 
    6100    10.008713   0.10187375         0.01 
    6200    10.021693   0.10080978         0.01 
    6300    10.022822   0.10102329         0.01 
    6400    10.009835   0.10188208         0.01 
    6500    10.019875   0.10097642         0.01 
    6600    10.021648   0.10093561         0.01 
    6700    10.015109   0.10124971         0.01 
    6800    10.012843   0.10151895         0.01 
    6900    10.015337    0.1012695         0.01 
    7000    10.025036   0.10059488         0.01 
    7100    10.011644   0.10183579         0.01 
    7200    10.021524   0.10109126         0.01 
    7300    10.019857   0.10081291         0.01 
    7400    10.009315   0.10157647         0.01 
    7500    10.016011   0.10133962         0.01 
    7600    10.024749   0.10070275         0.01 
    7700    10.016956   0.10126837         0.01 
    7800    10.011426    0.1015821         0.01 
    7900    10.021535   0.10103573         0.01 
    8000    10.008199   0.10175425         0.01 
    8100    10.016149   0.10125634         0.01 
    8200    10.022505   0.10097489         0.01 
    8300    10.017399   0.10116015         0.01 
    8400    10.012657   0.10127341         0.01 
    8500    10.019903    0.1009554         0.01 
    8600    10.022311   0.10088427         0.01 
    8700    10.014625   0.10148531         0.01 
    8800    10.015138   0.10153421         0.01 
    8900    10.013279   0.10152493         0.01 
    9000    10.027119    0.1003999         0.01 
    9100    10.007531   0.10163827         0.01 
    9200    10.016743   0.10115768         0.01 
    9300    10.009378   0.10175934         0.01 
    9400    10.013406   0.10113688         0.01 
    9500    10.015416   0.10132791         0.01 
    9600      10.0262   0.10062774         0.01 
    9700    10.026018   0.10088891         0.01 
    9800    10.024083   0.10127547         0.01 
    9900    10.019698   0.10126071         0.01 
   10000    10.013549   0.10157247         0.01 
   10100    10.017719   0.10091594         0.01 
   10200    10.029109   0.10048471         0.01 
   10300    10.008831   0.10165599         0.01 
   10400    10.023616   0.10078082         0.01 
   10500    10.017791   0.10109317         0.01 
   10600    10.023876   0.10077232         0.01 
   10700    10.015575   0.10137337         0.01 
   10800    10.024056   0.10095008         0.01 
   10900     10.01265   0.10151379         0.01 
   11000    9.9977799   0.10211025         0.01 
   11100    10.009872   0.10152424         0.01 
   11200    10.016707   0.10125402         0.01 
   11300    10.012465   0.10148247         0.01 
   11400     10.01404   0.10151172         0.01 
   11500    10.021221   0.10100112         0.01 
   11600    10.022595   0.10087489         0.01 
   11700      10.0168   0.10115766         0.01 
   11800    10.021381   0.10085142         0.01 
   11900    10.015487   0.10110462         0.01 
   12000    10.005484   0.10217319         0.01 
   12100    10.021116   0.10121768         0.01 
   12200     10.02372   0.10054475         0.01 
   12300    10.014438   0.10143626         0.01 
   12400    10.014833   0.10108813         0.01 
   12500    10.015969   0.10129079         0.01 
   12600    10.021929   0.10061137         0.01 
   12700    10.022383   0.10059263         0.01 
   12800     10.01998   0.10076106         0.01 
   12900    10.018027   0.10087053         0.01 
   13000    10.015573   0.10096292         0.01 
   13100    10.020866   0.10037996         0.01 
   13200    10.021793   0.10082799         0.01 
   13300    10.013411    0.1012867         0.01 
   13400    10.020478   0.10064078         0.01 
   13500    10.020202   0.10073008         0.01 
   13600    10.021287   0.10056979         0.01 
   13700    10.014597   0.10123864         0.01 
   13800    10.027745    0.1005485         0.01 
   13900    10.011521   0.10121329         0.01 
   14000    10.016241    0.1012174         0.01 
   14100     10.01439    0.1011988         0.01 
   14200    10.024248    0.1008141         0.01 
   14300    10.014932   0.10135984         0.01 
   14400    10.017712   0.10101795         0.01 
   14500    10.018798   0.10113609         0.01 
   14600    10.020096   0.10075306         0.01 
   14700    10.009402   0.10148281         0.01 
   14800    10.014495   0.10139767         0.01 
   14900    10.016403   0.10133706         0.01 
   15000    10.001489   0.10191705         0.01 
   15100    10.014935   0.10151376         0.01 
   15200    10.009994   0.10204969         0.01 
   15300    10.021568   0.10074621         0.01 
   15400    10.022019   0.10059205         0.01 
   15500     10.01537   0.10109465         0.01 
   15600    10.007955   0.10156917         0.01 
   15700    10.015715   0.10136179         0.01 
   15800    10.014831   0.10120824         0.01 
   15900     10.01468   0.10098514         0.01 
   16000    10.016182   0.10105144         0.01 
   16100    10.015983   0.10081205         0.01 
   16200    10.013296   0.10135316         0.01 
   16300    10.013673   0.10128958         0.01 
   16400    10.016568   0.10128395         0.01 
   16500    10.019503   0.10085358         0.01 
   16600    10.016532   0.10078864         0.01 
   16700    10.005714   0.10172601         0.01 
   16800    10.004245   0.10189941         0.01 
   16900    10.015476   0.10115597         0.01 
   17000    10.018189   0.10107206         0.01 
   17100    10.014248   0.10111517         0.01 
   17200    10.011858   0.10133446         0.01 
   17300    10.020702   0.10074246         0.01 
   17400    9.9961333   0.10276656         0.01 
   17500    10.007146   0.10175619         0.01 
   17600    10.012335   0.10163506         0.01 
   17700    10.013016   0.10125049         0.01 
   17800    10.015771   0.10105012         0.01 
   17900    10.010277   0.10182921         0.01 
   18000    10.018554   0.10094782         0.01 
   18100     10.00097   0.10206437         0.01 
   18200    10.010356   0.10172435         0.01 
   18300    10.018476   0.10090435         0.01 
   18400    10.012433   0.10162354         0.01 
   18500    10.013783   0.10101823         0.01 
   18600     10.02135   0.10080653         0.01 
   18700     10.00729   0.10187892         0.01 
   18800    10.017802   0.10085537         0.01 
   18900    10.010675   0.10125746         0.01 
   19000     10.02279   0.10042222         0.01 
   19100    10.020295   0.10054486         0.01 
   19200    10.004838    0.1015221         0.01 
   19300    10.015544   0.10109991         0.01 
   19400    10.008414    0.1014657         0.01 
   19500    10.007951   0.10157166         0.01 
   19600    10.012211   0.10135838         0.01 
   19700    10.010122   0.10150771         0.01 
   19800    10.012935   0.10103422         0.01 
   19900    10.015853    0.1009569         0.01 
   20000    10.014423    0.1013225         0.01 
Loop time of 1.38337 on 4 procs for 20000 steps with 4000 atoms

Performance: 6245615.782 tau/day, 14457.444 timesteps/s
95.7% CPU use with 4 MPI tasks x 1 OpenMP threads

MPI task timing breakdown:
Section |  min time  |  avg time  |  max time  |%varavg| %total
---------------------------------------------------------------
Pair    | 0.26795    | 0.27701    | 0.2849     |   1.3 | 20.02
Neigh   | 0.44977    | 0.46106    | 0.48438    |   2.1 | 33.33
Comm    | 0.37847    | 0.43188    | 0.46188    |   4.8 | 31.22
Output  | 0.0040956  | 0.0099471  | 0.02616    |   9.4 |  0.72
Modify  | 0.15077    | 0.15604    | 0.16343    |   1.3 | 11.28
Other   |            | 0.04744    |            |       |  3.43

Nlocal:    1000 ave 1046 max 936 min
Histogram: 1 0 0 1 0 0 0 0 0 2
Nghost:    519.25 ave 540 max 505 min
Histogram: 1 0 1 0 1 0 0 0 0 1
Neighs:    712.5 ave 794 max 622 min
Histogram: 1 0 0 1 0 0 0 1 0 1

Total # of neighbors = 2850
Ave neighs/atom = 0.7125
Neighbor list builds = 2000
Dangerous builds = 2000

clear
OMP_NUM_THREADS environment is not set. Defaulting to 1 thread. (src/comm.cpp:93)
  using 1 OpenMP thread(s) per MPI task
next rho
jump SELF rloop

variable rho index 0.001 0.005 0.01 0.05
variable T index 1e-8 1 2.5 5 10

units lj
dimension 3
boundary p p p
atom_style atomic

lattice fcc ${rho}
lattice fcc 0.05
Lattice spacing in x,y,z = 4.30887 4.30887 4.30887
region simbox block 0 10 0 10 0 10
create_box 1 simbox
Created orthogonal box = (0 0 0) to (43.0887 43.0887 43.0887)
  1 by 2 by 2 MPI processor grid
create_atoms 1 box
Created 4000 atoms
  create_atoms CPU = 0.000229836 secs

mass 1 1.0
velocity all create ${T} 87287 dist uniform
velocity all create 10 87287 dist uniform

pair_style lj/cut 3.0
pair_coeff 1 1 1.0 1.0 3.0

fix f all nve

# A log file for each T
log log.T${T} append
log log.T10 append

# dump 1 all custom 100 dump.PofT_${T} id type c_Ep c_Ek
thermo 100
thermo_style custom step temp press density
run 20000
Neighbor list info ...
  update every 1 steps, delay 10 steps, check yes
  max neighbors/atom: 2000, page size: 100000
  master list distance cutoff = 3.3
  ghost atom cutoff = 3.3
  binsize = 1.65, bins = 27 27 27
  1 neighbor lists, perpetual/occasional/extra = 1 0 0
  (1) pair lj/cut, perpetual
      attributes: half, newton on
      pair build: half/bin/atomonly/newton
      stencil: half/bin/3d/newton
      bin: standard
Per MPI rank memory allocation (min/avg/max) = 3.131 | 3.131 | 3.131 Mbytes
Step Temp Press Density 
       0           10     0.499875         0.05 
     100     10.07602   0.53786392         0.05 
     200    10.118019   0.52675307         0.05 
     300    10.114322   0.52679243         0.05 
     400    10.098331   0.53112108         0.05 
     500    10.090587   0.53292037         0.05 
     600    10.096835   0.53600744         0.05 
     700    10.113045   0.52744692         0.05 
     800    10.097847   0.53271609         0.05 
     900    10.120998   0.52421334         0.05 
    1000    10.106803   0.52716062         0.05 
    1100    10.089647   0.53770717         0.05 
    1200    10.085735   0.53802476         0.05 
    1300    10.100365   0.53478723         0.05 
    1400    10.098399   0.53310524         0.05 
    1500    10.111041   0.52769371         0.05 
    1600    10.100638   0.53110876         0.05 
    1700    10.093712   0.53175063         0.05 
    1800     10.10508   0.52717715         0.05 
    1900    10.097365   0.53078168         0.05 
    2000     10.08628   0.53575561         0.05 
    2100     10.08105   0.53321633         0.05 
    2200     10.09717   0.53249567         0.05 
    2300     10.09231   0.53304993         0.05 
    2400    10.087741   0.53631679         0.05 
    2500    10.086731   0.53377334         0.05 
    2600    10.099404   0.53004357         0.05 
    2700    10.114649   0.52610339         0.05 
    2800    10.102336   0.53004667         0.05 
    2900    10.094177   0.53348936         0.05 
    3000    10.101857   0.52855996         0.05 
    3100     10.09598   0.53277469         0.05 
    3200    10.085879   0.53523181         0.05 
    3300     10.08235   0.53679717         0.05 
    3400    10.096001   0.52953702         0.05 
    3500    10.105736    0.5248159         0.05 
    3600    10.106536   0.52785287         0.05 
    3700    10.089073   0.53380415         0.05 
    3800    10.114429   0.52286641         0.05 
    3900      10.0905   0.53360161         0.05 
    4000    10.098504   0.53042795         0.05 
    4100    10.092175   0.53194688         0.05 
    4200    10.070252   0.54166831         0.05 
    4300    10.081299   0.53232367         0.05 
    4400    10.082849    0.5352268         0.05 
    4500    10.099261   0.53000158         0.05 
    4600    10.091375   0.53120626         0.05 
    4700    10.095923   0.53033317         0.05 
    4800    10.086403   0.53463644         0.05 
    4900    10.091984   0.53154603         0.05 
    5000    10.093925   0.52942717         0.05 
    5100    10.090059   0.53402784         0.05 
    5200    10.078844   0.53502098         0.05 
    5300    10.087058   0.53427603         0.05 
    5400    10.090672   0.53133366         0.05 
    5500     10.09272   0.53076182         0.05 
    5600     10.08699   0.53207385         0.05 
    5700     10.08937    0.5292926         0.05 
    5800    10.088895    0.5304107         0.05 
    5900     10.08917   0.53264088         0.05 
    6000     10.09031   0.53065732         0.05 
    6100    10.091951   0.53055302         0.05 
    6200    10.063233   0.54048475         0.05 
    6300    10.088584   0.53329919         0.05 
    6400     10.07737   0.53465317         0.05 
    6500    10.097504   0.52797724         0.05 
    6600    10.091863   0.52691792         0.05 
    6700    10.090973   0.52859468         0.05 
    6800    10.084782   0.53119314         0.05 
    6900    10.094025   0.52782064         0.05 
    7000    10.073667   0.53738109         0.05 
    7100    10.084167   0.53189882         0.05 
    7200    10.104639   0.52902339         0.05 
    7300    10.095972    0.5306604         0.05 
    7400    10.093526   0.53214327         0.05 
    7500    10.055172   0.54470312         0.05 
    7600    10.089171   0.53186835         0.05 
    7700    10.083908   0.53393804         0.05 
    7800    10.070773   0.53943937         0.05 
    7900    10.108867   0.52344682         0.05 
    8000    10.110328   0.52562283         0.05 
    8100    10.093467   0.52887387         0.05 
    8200    10.084765   0.53352481         0.05 
    8300    10.086623    0.5342108         0.05 
    8400    10.082428   0.53404078         0.05 
    8500    10.080417   0.53530677         0.05 
    8600    10.073577   0.53312273         0.05 
    8700    10.074788   0.53325198         0.05 
    8800    10.106547   0.52294299         0.05 
    8900    10.088683   0.53125337         0.05 
    9000    10.089718   0.53196561         0.05 
    9100    10.080238   0.53642373         0.05 
    9200    10.078999   0.53446238         0.05 
    9300    10.097735   0.52823527         0.05 
    9400     10.11057   0.52333591         0.05 
    9500    10.089747   0.53014949         0.05 
    9600    10.075568     0.533871         0.05 
    9700     10.06945   0.53748623         0.05 
    9800    10.087394   0.53441562         0.05 
    9900    10.097471    0.5260388         0.05 
   10000     10.09627   0.52986673         0.05 
   10100    10.069511    0.5394402         0.05 
   10200    10.071124   0.53822083         0.05 
   10300    10.074949   0.53452305         0.05 
   10400    10.084934   0.52680296         0.05 
   10500    10.063367   0.53889429         0.05 
   10600    10.089885   0.53087493         0.05 
   10700    10.089981   0.52794839         0.05 
   10800    10.078899   0.53278895         0.05 
   10900    10.069138   0.53741046         0.05 
   11000    10.064495   0.53921969         0.05 
   11100    10.069403   0.53660082         0.05 
   11200    10.072773   0.53416894         0.05 
   11300    10.095236     0.527953         0.05 
   11400    10.084821   0.53166298         0.05 
   11500    10.091873    0.5280475         0.05 
   11600     10.07548   0.53236646         0.05 
   11700    10.061716   0.53789161         0.05 
   11800    10.125015   0.51759742         0.05 
   11900    10.102715   0.52390478         0.05 
   12000    10.099233   0.52678659         0.05 
   12100    10.067182   0.53878208         0.05 
   12200    10.094215   0.52654051         0.05 
   12300    10.088006   0.52888702         0.05 
   12400    10.080439   0.53297745         0.05 
   12500    10.076484   0.53419513         0.05 
   12600    10.082618   0.52969299         0.05 
   12700    10.074799   0.53249738         0.05 
   12800    10.089921   0.52572911         0.05 
   12900    10.071532   0.53516107         0.05 
   13000    10.101911   0.52711957         0.05 
   13100    10.074568   0.53193384         0.05 
   13200    10.108493   0.52171296         0.05 
   13300    10.094627   0.52971774         0.05 
   13400    10.048388   0.54282047         0.05 
   13500    10.071507   0.53805523         0.05 
   13600    10.071844   0.53459441         0.05 
   13700    10.082215   0.53149267         0.05 
   13800    10.077106   0.53062866         0.05 
   13900    10.055602   0.53679702         0.05 
   14000    10.079535   0.53057457         0.05 
   14100    10.077167   0.53166978         0.05 
   14200    10.064727   0.53740751         0.05 
   14300    10.090694   0.52768562         0.05 
   14400    10.064966   0.53521524         0.05 
   14500    10.061361   0.53760503         0.05 
   14600    10.049611   0.53918489         0.05 
   14700    10.060338   0.53897033         0.05 
   14800    10.075448   0.53144795         0.05 
   14900    10.067681   0.53516581         0.05 
   15000    10.095427   0.52441821         0.05 
   15100    10.072857   0.53106223         0.05 
   15200    10.100622   0.52219663         0.05 
   15300    10.069153   0.53357551         0.05 
   15400    10.064369   0.53364222         0.05 
   15500    10.066022   0.53390732         0.05 
   15600    10.053387   0.54032779         0.05 
   15700    10.076381    0.5307167         0.05 
   15800    10.061377   0.53759887         0.05 
   15900    10.077114   0.53186011         0.05 
   16000    10.049823   0.53978483         0.05 
   16100    10.084933   0.52761068         0.05 
   16200    10.084053   0.52927873         0.05 
   16300    10.092065   0.52513999         0.05 
   16400    10.058265   0.53836683         0.05 
   16500    10.076961   0.53063692         0.05 
   16600    10.077556   0.52902578         0.05 
   16700    10.067374    0.5333747         0.05 
   16800    10.067157   0.53313068         0.05 
   16900    10.081673   0.52757296         0.05 
   17000      10.0774   0.52677548         0.05 
   17100    10.066382   0.53151055         0.05 
   17200    10.055299   0.53538437         0.05 
   17300    10.081533   0.53006293         0.05 
   17400    10.087598   0.52849601         0.05 
   17500    10.081942   0.52846376         0.05 
   17600    10.083443   0.53071159         0.05 
   17700    10.057419   0.53914412         0.05 
   17800    10.050704   0.53693049         0.05 
   17900    10.089529   0.52655123         0.05 
   18000    10.052937    0.5373181         0.05 
   18100    10.088589   0.52342019         0.05 
   18200    10.082451   0.53031941         0.05 
   18300    10.061092   0.53525741         0.05 
   18400    10.075016   0.53106852         0.05 
   18500    10.077513   0.52877667         0.05 
   18600    10.084888   0.52429061         0.05 
   18700     10.07059   0.53235539         0.05 
   18800    10.049988   0.53705414         0.05 
   18900    10.082504   0.52633011         0.05 
   19000    10.081574    0.5261192         0.05 
   19100    10.061944   0.53437323         0.05 
   19200     10.07999   0.52888012         0.05 
   19300    10.098216   0.52039689         0.05 
   19400    10.076228   0.52737169         0.05 
   19500    10.073238   0.52890647         0.05 
   19600    10.093087   0.52359016         0.05 
   19700    10.067557   0.53147666         0.05 
   19800     10.07876   0.52916192         0.05 
   19900     10.06989   0.53018493         0.05 
   20000    10.068129    0.5306953         0.05 
Loop time of 2.91027 on 4 procs for 20000 steps with 4000 atoms

Performance: 2968794.059 tau/day, 6872.208 timesteps/s
96.1% CPU use with 4 MPI tasks x 1 OpenMP threads

MPI task timing breakdown:
Section |  min time  |  avg time  |  max time  |%varavg| %total
---------------------------------------------------------------
Pair    | 1.0729     | 1.0871     | 1.1086     |   1.3 | 37.36
Neigh   | 0.86862    | 0.87973    | 0.8935     |   1.1 | 30.23
Comm    | 0.67995    | 0.72229    | 0.75342    |   3.7 | 24.82
Output  | 0.0050168  | 0.013245   | 0.035867   |  11.4 |  0.46
Modify  | 0.1535     | 0.1558     | 0.16009    |   0.7 |  5.35
Other   |            | 0.05207    |            |       |  1.79

Nlocal:    1000 ave 1066 max 941 min
Histogram: 1 0 0 1 0 1 0 0 0 1
Nghost:    958 ave 1008 max 890 min
Histogram: 1 0 0 0 0 1 0 1 0 1
Neighs:    3765.25 ave 4224 max 3422 min
Histogram: 1 1 0 0 0 1 0 0 0 1

Total # of neighbors = 15061
Ave neighs/atom = 3.76525
Neighbor list builds = 2000
Dangerous builds = 2000

clear
OMP_NUM_THREADS environment is not set. Defaulting to 1 thread. (src/comm.cpp:93)
  using 1 OpenMP thread(s) per MPI task
next rho
jump SELF rloop

clear
OMP_NUM_THREADS environment is not set. Defaulting to 1 thread. (src/comm.cpp:93)
  using 1 OpenMP thread(s) per MPI task
next T
jump SELF tloop
Total wall time: 0:00:33
